.Version 9.2.2 of ABINIT

 ABINIT is a project of the Universite Catholique de Louvain,
 Corning Inc. and other collaborators, see ~abinit/doc/developers/contributors.txt .
 acknowledgments of the ABINIT effort.

.Starting date : Sun  7 Mar 2021.
- ( at 01h22 )

- input  file    -> BS_1.abi
- output file    -> BS_1.abo
- root for input  files -> BS_1i
- root for output files -> BS_1o

 DATASET    1 : space group F-4 3 m (#216); Bravais cF (face-center cubic)
     intxc =       0    ionmov =       0      iscf =       7    lmnmax =       6
     lnmax =       6     mgfft =      54  mpssoang =       3    mqgrid =    3001
     natom =       2  nloc_mem =       1    nspden =       1   nspinor =       1
    nsppol =       1      nsym =      24    n1xccc =    2501    ntypat =       2
    occopt =       1   xclevel =       1
-    mband =          15        mffmem =           1         mkmem =           2
       mpw =        5892          nfft =      157464          nkpt =          10
  Rough estimation (10% accuracy) of disk space for files :

 DATASET    2 : space group F-4 3 m (#216); Bravais cF (face-center cubic)
     intxc =       0    ionmov =       0      iscf =      -2    lmnmax =       6
     lnmax =       6     mgfft =      54  mpssoang =       3    mqgrid =    3001
     natom =       2  nloc_mem =       1    nspden =       1   nspinor =       1
    nsppol =       1      nsym =      24    n1xccc =    2501    ntypat =       2
    occopt =       1   xclevel =       1
-    mband =          20        mffmem =           1         mkmem =          24
       mpw =        5961          nfft =      157464          nkpt =         191
  Rough estimation (10% accuracy) of disk space for files :

------------- Echo of variables that govern the present computation ------------
-
- outvars: echo of selected default values
-   iomode0 =  0 , fftalg0 =312 , wfoptalg0 =  0
-
- outvars: echo of global parameters not present in the input file
-  max_nthreads =    8
-
 -outvars: echo values of preprocessed input variables --------
            acell      1.2182413650E+01  1.2182413650E+01  1.2182413650E+01 Bohr
              amu      1.14820000E+02  1.21753000E+02
        autoparal           1
           diemac      1.60000000E+01
             ecut      4.20000000E+01 Hartree
           enunit1          0
           enunit2          1
-          fftalg         312
           getden1          0
           getden2         -1
             iscf1          7
             iscf2         -2
           istwfk2       3    0    0    0    0    0    0    0    0    0
                         0    0    0    0    0    0    0    0    0    0
                         0    0    0    0    0    0    0    0    0    0
                         0    0    0    0    0    0    0    0    0    0
                         0    0    0    0    0    0    0    0    0    0
                       outvar_i_n : Printing only first  50 k-points.
              ixc       -1012
           jdtset        1    2
              kpt1    -1.25000000E-01 -2.50000000E-01  0.00000000E+00
                      -1.25000000E-01  5.00000000E-01  0.00000000E+00
                      -2.50000000E-01 -3.75000000E-01  0.00000000E+00
                      -1.25000000E-01 -3.75000000E-01  1.25000000E-01
                      -1.25000000E-01  2.50000000E-01  0.00000000E+00
                      -2.50000000E-01  3.75000000E-01  0.00000000E+00
                      -3.75000000E-01  5.00000000E-01  0.00000000E+00
                      -2.50000000E-01  5.00000000E-01  1.25000000E-01
                      -1.25000000E-01  0.00000000E+00  0.00000000E+00
                      -3.75000000E-01  0.00000000E+00  0.00000000E+00
              kpt2     5.00000000E-01  0.00000000E+00  0.00000000E+00
                       4.90000000E-01  0.00000000E+00  0.00000000E+00
                       4.80000000E-01  0.00000000E+00  0.00000000E+00
                       4.70000000E-01  0.00000000E+00  0.00000000E+00
                       4.60000000E-01  0.00000000E+00  0.00000000E+00
                       4.50000000E-01  0.00000000E+00  0.00000000E+00
                       4.40000000E-01  0.00000000E+00  0.00000000E+00
                       4.30000000E-01  0.00000000E+00  0.00000000E+00
                       4.20000000E-01  0.00000000E+00  0.00000000E+00
                       4.10000000E-01  0.00000000E+00  0.00000000E+00
                       4.00000000E-01  0.00000000E+00  0.00000000E+00
                       3.90000000E-01  0.00000000E+00  0.00000000E+00
                       3.80000000E-01  0.00000000E+00  0.00000000E+00
                       3.70000000E-01  0.00000000E+00  0.00000000E+00
                       3.60000000E-01  0.00000000E+00  0.00000000E+00
                       3.50000000E-01  0.00000000E+00  0.00000000E+00
                       3.40000000E-01  0.00000000E+00  0.00000000E+00
                       3.30000000E-01  0.00000000E+00  0.00000000E+00
                       3.20000000E-01  0.00000000E+00  0.00000000E+00
                       3.10000000E-01  0.00000000E+00  0.00000000E+00
                       3.00000000E-01  0.00000000E+00  0.00000000E+00
                       2.90000000E-01  0.00000000E+00  0.00000000E+00
                       2.80000000E-01  0.00000000E+00  0.00000000E+00
                       2.70000000E-01  0.00000000E+00  0.00000000E+00
                       2.60000000E-01  0.00000000E+00  0.00000000E+00
                       2.50000000E-01  0.00000000E+00  0.00000000E+00
                       2.40000000E-01  0.00000000E+00  0.00000000E+00
                       2.30000000E-01  0.00000000E+00  0.00000000E+00
                       2.20000000E-01  0.00000000E+00  0.00000000E+00
                       2.10000000E-01  0.00000000E+00  0.00000000E+00
                       2.00000000E-01  0.00000000E+00  0.00000000E+00
                       1.90000000E-01  0.00000000E+00  0.00000000E+00
                       1.80000000E-01  0.00000000E+00  0.00000000E+00
                       1.70000000E-01  0.00000000E+00  0.00000000E+00
                       1.60000000E-01  0.00000000E+00  0.00000000E+00
                       1.50000000E-01  0.00000000E+00  0.00000000E+00
                       1.40000000E-01  0.00000000E+00  0.00000000E+00
                       1.30000000E-01  0.00000000E+00  0.00000000E+00
                       1.20000000E-01  0.00000000E+00  0.00000000E+00
                       1.10000000E-01  0.00000000E+00  0.00000000E+00
                       1.00000000E-01  0.00000000E+00  0.00000000E+00
                       9.00000000E-02  0.00000000E+00  0.00000000E+00
                       8.00000000E-02  0.00000000E+00  0.00000000E+00
                       7.00000000E-02  0.00000000E+00  0.00000000E+00
                       6.00000000E-02  0.00000000E+00  0.00000000E+00
                       5.00000000E-02  0.00000000E+00  0.00000000E+00
                       4.00000000E-02  0.00000000E+00  0.00000000E+00
                       3.00000000E-02  0.00000000E+00  0.00000000E+00
                       2.00000000E-02  0.00000000E+00  0.00000000E+00
                       1.00000000E-02  0.00000000E+00  0.00000000E+00
                       outvar_i_n : Printing only first  50 k-points.
           kptopt1          1
           kptopt2         -3
         kptrlatt        4   -4    4     -4    4    4     -4   -4    4
          kptrlen1     4.87296546E+01
          kptrlen2     3.00000000E+01
P           mkmem1          2
P           mkmem2         24
            natom           2
            nband1         15
            nband2         20
           nbdbuf1          0
           nbdbuf2          2
           ndtset           2
           ndivsm1          0
           ndivsm2         50
            ngfft          54      54      54
             nkpt1         10
             nkpt2        191
-           npkpt           8
            nstep         100
             nsym          24
           ntypat           2
              occ      2.000000  2.000000  2.000000  2.000000  2.000000  2.000000
                       2.000000  2.000000  2.000000  2.000000  2.000000  2.000000
                       2.000000  2.000000  0.000000
            rprim      0.0000000000E+00  5.0000000000E-01  5.0000000000E-01
                       5.0000000000E-01  0.0000000000E+00  5.0000000000E-01
                       5.0000000000E-01  5.0000000000E-01  0.0000000000E+00
           shiftk      5.00000000E-01  5.00000000E-01  5.00000000E-01
          spgroup         216
           symrel      1  0  0   0  1  0   0  0  1       0 -1  1   0 -1  0   1 -1  0
                      -1  0  0  -1  0  1  -1  1  0       0  1 -1   1  0 -1   0  0 -1
                      -1  0  0  -1  1  0  -1  0  1       0 -1  1   1 -1  0   0 -1  0
                       1  0  0   0  0  1   0  1  0       0  1 -1   0  0 -1   1  0 -1
                      -1  0  1  -1  1  0  -1  0  0       0 -1  0   1 -1  0   0 -1  1
                       1  0 -1   0  0 -1   0  1 -1       0  1  0   0  0  1   1  0  0
                       1  0 -1   0  1 -1   0  0 -1       0 -1  0   0 -1  1   1 -1  0
                      -1  0  1  -1  0  0  -1  1  0       0  1  0   1  0  0   0  0  1
                       0  0 -1   0  1 -1   1  0 -1       1 -1  0   0 -1  1   0 -1  0
                       0  0  1   1  0  0   0  1  0      -1  1  0  -1  0  0  -1  0  1
                       0  0  1   0  1  0   1  0  0       1 -1  0   0 -1  0   0 -1  1
                       0  0 -1   1  0 -1   0  1 -1      -1  1  0  -1  0  1  -1  0  0
           toldfe1     1.00000000E-12 Hartree
           toldfe2     0.00000000E+00 Hartree
           tolwfr1     0.00000000E+00
           tolwfr2     1.00000000E-16
            typat      1  2
              wtk1       0.09375    0.09375    0.09375    0.18750    0.09375    0.09375
                         0.09375    0.18750    0.03125    0.03125
              wtk2       1.00000    1.00000    1.00000    1.00000    1.00000    1.00000
                         1.00000    1.00000    1.00000    1.00000    1.00000    1.00000
                         1.00000    1.00000    1.00000    1.00000    1.00000    1.00000
                         1.00000    1.00000    1.00000    1.00000    1.00000    1.00000
                         1.00000    1.00000    1.00000    1.00000    1.00000    1.00000
                         1.00000    1.00000    1.00000    1.00000    1.00000    1.00000
                         1.00000    1.00000    1.00000    1.00000    1.00000    1.00000
                         1.00000    1.00000    1.00000    1.00000    1.00000    1.00000
                         1.00000    1.00000
                       outvars : Printing only first  50 k-points.
           xangst      0.0000000000E+00  0.0000000000E+00  0.0000000000E+00
                       1.6116639123E+00  1.6116639123E+00  1.6116639123E+00
            xcart      0.0000000000E+00  0.0000000000E+00  0.0000000000E+00
                       3.0456034125E+00  3.0456034125E+00  3.0456034125E+00
             xred      0.0000000000E+00  0.0000000000E+00  0.0000000000E+00
                       2.5000000000E-01  2.5000000000E-01  2.5000000000E-01
[...]
 -24.11403  -24.11365  -24.11341  -24.09583  -24.09555  -10.17470  -10.14247  -10.13813
 -10.06317  -10.06016   -6.01118    1.32922    3.13705    4.14321    5.97129    7.75480
   7.84116    8.84634   11.21633   11.80644
 kpt# 170, nband= 20, wtk=  1.00000, kpt=  0.7439  0.8720  0.8720 (reduced coord)
 -24.11404  -24.11368  -24.11344  -24.09584  -24.09557  -10.17296  -10.14318  -10.13900
 -10.06302  -10.06020   -6.04807    1.45387    3.22680    4.17230    5.92948    7.70982
   7.80078    8.79328   11.25438   11.73219
 kpt# 171, nband= 20, wtk=  1.00000, kpt=  0.7561  0.8780  0.8780 (reduced coord)
 -24.11404  -24.11371  -24.11348  -24.09585  -24.09560  -10.17124  -10.14386  -10.13986
 -10.06287  -10.06023   -6.08353    1.58033    3.31613    4.19986    5.88621    7.66773
   7.76234    8.73054   11.29738   11.65365
 kpt# 172, nband= 20, wtk=  1.00000, kpt=  0.7683  0.8841  0.8841 (reduced coord)
 -24.11405  -24.11374  -24.11352  -24.09586  -24.09562  -10.16955  -10.14452  -10.14073
 -10.06271  -10.06027   -6.11753    1.70851    3.40476    4.22588    5.84134    7.62858
   7.72583    8.65886   11.34531   11.56513
 kpt# 173, nband= 20, wtk=  1.00000, kpt=  0.7805  0.8902  0.8902 (reduced coord)
 -24.11405  -24.11377  -24.11356  -24.09587  -24.09565  -10.16789  -10.14515  -10.14158
 -10.06256  -10.06031   -6.15001    1.83830    3.49236    4.25037    5.79468    7.59244
   7.69125    8.57935   11.39814   11.46685
 kpt# 174, nband= 20, wtk=  1.00000, kpt=  0.7927  0.8963  0.8963 (reduced coord)
 -24.11405  -24.11379  -24.11360  -24.09588  -24.09567  -10.16628  -10.14576  -10.14243
 -10.06240  -10.06035   -6.18094    1.96959    3.57861    4.27332    5.74599    7.55935
   7.65859    8.49339   11.36152   11.45584
 kpt# 175, nband= 20, wtk=  1.00000, kpt=  0.8049  0.9024  0.9024 (reduced coord)
 -24.11405  -24.11382  -24.11364  -24.09588  -24.09570  -10.16472  -10.14633  -10.14327
 -10.06224  -10.06039   -6.21028    2.10225    3.66315    4.29475    5.69498    7.52935
   7.62785    8.40254   11.25197   11.51837
 kpt# 176, nband= 20, wtk=  1.00000, kpt=  0.8171  0.9085  0.9085 (reduced coord)
 -24.11405  -24.11384  -24.11368  -24.09589  -24.09572  -10.16321  -10.14688  -10.14408
 -10.06209  -10.06043   -6.23800    2.23617    3.74560    4.31468    5.64132    7.50247
   7.59901    8.30841   11.14041   11.58567
 kpt# 177, nband= 20, wtk=  1.00000, kpt=  0.8293  0.9146  0.9146 (reduced coord)
 -24.11405  -24.11387  -24.11372  -24.09590  -24.09574  -10.16176  -10.14739  -10.14487
 -10.06194  -10.06047   -6.26406    2.37118    3.82556    4.33312    5.58465    7.47871
   7.57206    8.21268   11.02856   11.65796
 kpt# 178, nband= 20, wtk=  1.00000, kpt=  0.8415  0.9207  0.9207 (reduced coord)
 -24.11404  -24.11389  -24.11375  -24.09590  -24.09577  -10.16038  -10.14787  -10.14563
 -10.06179  -10.06050   -6.28845    2.50714    3.90262    4.35010    5.52458    7.45807
   7.54701    8.11694   10.91777   11.73432
 kpt# 179, nband= 20, wtk=  1.00000, kpt=  0.8537  0.9268  0.9268 (reduced coord)
 -24.11404  -24.11391  -24.11379  -24.09590  -24.09579  -10.15907  -10.14833  -10.14636
 -10.06165  -10.06054   -6.31112    2.64386    3.97633    4.36565    5.46070    7.44049
   7.52385    8.02273   10.80922   11.81552
 kpt# 180, nband= 20, wtk=  1.00000, kpt=  0.8659  0.9329  0.9329 (reduced coord)
 -24.11404  -24.11392  -24.11382  -24.09591  -24.09581  -10.15785  -10.14874  -10.14705
 -10.06152  -10.06057   -6.33207    2.78113    4.04627    4.37980    5.39263    7.42589
   7.50256    7.93148   10.70400   11.90116
 kpt# 181, nband= 20, wtk=  1.00000, kpt=  0.8780  0.9390  0.9390 (reduced coord)
 -24.11404  -24.11394  -24.11385  -24.09591  -24.09583  -10.15671  -10.14913  -10.14769
 -10.06139  -10.06060   -6.35126    2.91874    4.11197    4.39258    5.31999    7.41415
   7.48315    7.84450   10.60315   11.99189
 kpt# 182, nband= 20, wtk=  1.00000, kpt=  0.8902  0.9451  0.9451 (reduced coord)
 -24.11403  -24.11395  -24.11388  -24.09591  -24.09584  -10.15566  -10.14948  -10.14829
 -10.06127  -10.06062   -6.36868    3.05640    4.17301    4.40403    5.24249    7.40507
   7.46560    7.76296   10.50767   12.08622
 kpt# 183, nband= 20, wtk=  1.00000, kpt=  0.9024  0.9512  0.9512 (reduced coord)
 -24.11403  -24.11397  -24.11391  -24.09592  -24.09586  -10.15470  -10.14979  -10.14883
 -10.06116  -10.06065   -6.38431    3.19380    4.22895    4.41416    5.15995    7.39843
   7.44992    7.68789   10.41857   12.18370
 kpt# 184, nband= 20, wtk=  1.00000, kpt=  0.9146  0.9573  0.9573 (reduced coord)
 -24.11403  -24.11398  -24.11394  -24.09592  -24.09588  -10.15385  -10.15007  -10.14932
 -10.06107  -10.06067   -6.39814    3.33056    4.27938    4.42303    5.07232    7.39393
   7.43609    7.62013   10.33685   12.28588
 kpt# 185, nband= 20, wtk=  1.00000, kpt=  0.9268  0.9634  0.9634 (reduced coord)
 -24.11403  -24.11399  -24.11396  -24.09592  -24.09589  -10.15310  -10.15031  -10.14976
 -10.06098  -10.06068   -6.41015    3.46617    4.32392    4.43064    4.97973    7.39123
   7.42411    7.56037   10.26348   12.39384
 kpt# 186, nband= 20, wtk=  1.00000, kpt=  0.9390  0.9695  0.9695 (reduced coord)
 -24.11402  -24.11400  -24.11398  -24.09592  -24.09590  -10.15246  -10.15052  -10.15013
 -10.06091  -10.06070   -6.42033    3.59997    4.36222    4.43704    4.88260    7.38992
   7.41398    7.50915   10.19943   12.50232
 kpt# 187, nband= 20, wtk=  1.00000, kpt=  0.9512  0.9756  0.9756 (reduced coord)
 -24.11402  -24.11401  -24.11399  -24.09592  -24.09591  -10.15194  -10.15069  -10.15043
 -10.06085  -10.06071   -6.42867    3.73091    4.39398    4.44224    4.78179    7.38962
   7.40570    7.46686   10.14559   12.61453
 kpt# 188, nband= 20, wtk=  1.00000, kpt=  0.9634  0.9817  0.9817 (reduced coord)
 -24.11402  -24.11401  -24.11400  -24.09592  -24.09592  -10.15152  -10.15082  -10.15068
 -10.06080  -10.06072   -6.43517    3.85713    4.41895    4.44626    4.67905    7.38990
   7.39927    7.43376   10.10276   12.72881
 kpt# 189, nband= 20, wtk=  1.00000, kpt=  0.9756  0.9878  0.9878 (reduced coord)
 -24.11402  -24.11402  -24.11401  -24.09592  -24.09592  -10.15123  -10.15091  -10.15085
 -10.06076  -10.06073   -6.43982    3.97454    4.43694    4.44912    4.57844    7.39040
   7.39467    7.41003   10.07164   12.83490
 kpt# 190, nband= 20, wtk=  1.00000, kpt=  0.9878  0.9939  0.9939 (reduced coord)
 -24.11402  -24.11402  -24.11402  -24.09593  -24.09592  -10.15105  -10.15097  -10.15095
 -10.06074  -10.06073   -6.44261    4.07160    4.44778    4.45084    4.49146    7.39083
   7.39191    7.39576   10.05274   12.93550
 kpt# 191, nband= 20, wtk=  1.00000, kpt=  1.0000  1.0000  1.0000 (reduced coord)
 -24.11402  -24.11402  -24.11402  -24.09593  -24.09593  -10.15099  -10.15099  -10.15099
 -10.06074  -10.06074   -6.44354    4.11501    4.45141    4.45141    4.45141    7.39099
   7.39099    7.39099   10.04641   12.97964

== END DATASET(S) ==============================================================

 -outvars: echo values of variables after computation  --------
            acell      1.2182413650E+01  1.2182413650E+01  1.2182413650E+01 Bohr
              amu      1.14820000E+02  1.21753000E+02
        autoparal           1
           diemac      1.60000000E+01
             ecut      4.20000000E+01 Hartree
           enunit1          0
           enunit2          1
           etotal1    -1.5699465746E+02
            fcart1     3.4535505706E-31 -1.0360651712E-30  3.4535505706E-31
                      -3.4535505706E-31  1.0360651712E-30 -3.4535505706E-31
-          fftalg         312
           getden1          0
           getden2         -1
             iscf1          7
             iscf2         -2
           istwfk2       3    0    0    0    0    0    0    0    0    0
                         0    0    0    0    0    0    0    0    0    0
                         0    0    0    0    0    0    0    0    0    0
                         0    0    0    0    0    0    0    0    0    0
                         0    0    0    0    0    0    0    0    0    0
                       outvar_i_n : Printing only first  50 k-points.
              ixc       -1012
           jdtset        1    2
              kpt1    -1.25000000E-01 -2.50000000E-01  0.00000000E+00
                      -1.25000000E-01  5.00000000E-01  0.00000000E+00
                      -2.50000000E-01 -3.75000000E-01  0.00000000E+00
                      -1.25000000E-01 -3.75000000E-01  1.25000000E-01
                      -1.25000000E-01  2.50000000E-01  0.00000000E+00
                      -2.50000000E-01  3.75000000E-01  0.00000000E+00
                      -3.75000000E-01  5.00000000E-01  0.00000000E+00
                      -2.50000000E-01  5.00000000E-01  1.25000000E-01
                      -1.25000000E-01  0.00000000E+00  0.00000000E+00
                      -3.75000000E-01  0.00000000E+00  0.00000000E+00
              kpt2     5.00000000E-01  0.00000000E+00  0.00000000E+00
                       4.90000000E-01  0.00000000E+00  0.00000000E+00
                       4.80000000E-01  0.00000000E+00  0.00000000E+00
                       4.70000000E-01  0.00000000E+00  0.00000000E+00
                       4.60000000E-01  0.00000000E+00  0.00000000E+00
                       4.50000000E-01  0.00000000E+00  0.00000000E+00
                       4.40000000E-01  0.00000000E+00  0.00000000E+00
                       4.30000000E-01  0.00000000E+00  0.00000000E+00
                       4.20000000E-01  0.00000000E+00  0.00000000E+00
                       4.10000000E-01  0.00000000E+00  0.00000000E+00
                       4.00000000E-01  0.00000000E+00  0.00000000E+00
                       3.90000000E-01  0.00000000E+00  0.00000000E+00
                       3.80000000E-01  0.00000000E+00  0.00000000E+00
                       3.70000000E-01  0.00000000E+00  0.00000000E+00
                       3.60000000E-01  0.00000000E+00  0.00000000E+00
                       3.50000000E-01  0.00000000E+00  0.00000000E+00
                       3.40000000E-01  0.00000000E+00  0.00000000E+00
                       3.30000000E-01  0.00000000E+00  0.00000000E+00
                       3.20000000E-01  0.00000000E+00  0.00000000E+00
                       3.10000000E-01  0.00000000E+00  0.00000000E+00
                       3.00000000E-01  0.00000000E+00  0.00000000E+00
                       2.90000000E-01  0.00000000E+00  0.00000000E+00
                       2.80000000E-01  0.00000000E+00  0.00000000E+00
                       2.70000000E-01  0.00000000E+00  0.00000000E+00
                       2.60000000E-01  0.00000000E+00  0.00000000E+00
                       2.50000000E-01  0.00000000E+00  0.00000000E+00
                       2.40000000E-01  0.00000000E+00  0.00000000E+00
                       2.30000000E-01  0.00000000E+00  0.00000000E+00
                       2.20000000E-01  0.00000000E+00  0.00000000E+00
                       2.10000000E-01  0.00000000E+00  0.00000000E+00
                       2.00000000E-01  0.00000000E+00  0.00000000E+00
                       1.90000000E-01  0.00000000E+00  0.00000000E+00
                       1.80000000E-01  0.00000000E+00  0.00000000E+00
                       1.70000000E-01  0.00000000E+00  0.00000000E+00
                       1.60000000E-01  0.00000000E+00  0.00000000E+00
                       1.50000000E-01  0.00000000E+00  0.00000000E+00
                       1.40000000E-01  0.00000000E+00  0.00000000E+00
                       1.30000000E-01  0.00000000E+00  0.00000000E+00
                       1.20000000E-01  0.00000000E+00  0.00000000E+00
                       1.10000000E-01  0.00000000E+00  0.00000000E+00
                       1.00000000E-01  0.00000000E+00  0.00000000E+00
                       9.00000000E-02  0.00000000E+00  0.00000000E+00
                       8.00000000E-02  0.00000000E+00  0.00000000E+00
                       7.00000000E-02  0.00000000E+00  0.00000000E+00
                       6.00000000E-02  0.00000000E+00  0.00000000E+00
                       5.00000000E-02  0.00000000E+00  0.00000000E+00
                       4.00000000E-02  0.00000000E+00  0.00000000E+00
                       3.00000000E-02  0.00000000E+00  0.00000000E+00
                       2.00000000E-02  0.00000000E+00  0.00000000E+00
                       1.00000000E-02  0.00000000E+00  0.00000000E+00
                       outvar_i_n : Printing only first  50 k-points.
           kptopt1          1
           kptopt2         -3
         kptrlatt        4   -4    4     -4    4    4     -4   -4    4
          kptrlen1     4.87296546E+01
          kptrlen2     3.00000000E+01
P           mkmem1          2
P           mkmem2         24
            natom           2
            nband1         15
            nband2         20
           nbdbuf1          0
           nbdbuf2          2
           ndtset           2
           ndivsm1          0
           ndivsm2         50
            ngfft          54      54      54
             nkpt1         10
             nkpt2        191
-           npkpt           8
            nstep         100
             nsym          24
           ntypat           2
              occ      2.000000  2.000000  2.000000  2.000000  2.000000  2.000000
                       2.000000  2.000000  2.000000  2.000000  2.000000  2.000000
                       2.000000  2.000000  0.000000
            rprim      0.0000000000E+00  5.0000000000E-01  5.0000000000E-01
                       5.0000000000E-01  0.0000000000E+00  5.0000000000E-01
                       5.0000000000E-01  5.0000000000E-01  0.0000000000E+00
           shiftk      5.00000000E-01  5.00000000E-01  5.00000000E-01
          spgroup         216
           strten1     6.0608915388E-07  6.0608915388E-07  6.0608915388E-07
                       0.0000000000E+00  0.0000000000E+00  0.0000000000E+00
           symrel      1  0  0   0  1  0   0  0  1       0 -1  1   0 -1  0   1 -1  0
                      -1  0  0  -1  0  1  -1  1  0       0  1 -1   1  0 -1   0  0 -1
                      -1  0  0  -1  1  0  -1  0  1       0 -1  1   1 -1  0   0 -1  0
                       1  0  0   0  0  1   0  1  0       0  1 -1   0  0 -1   1  0 -1
                      -1  0  1  -1  1  0  -1  0  0       0 -1  0   1 -1  0   0 -1  1
                       1  0 -1   0  0 -1   0  1 -1       0  1  0   0  0  1   1  0  0
                       1  0 -1   0  1 -1   0  0 -1       0 -1  0   0 -1  1   1 -1  0
                      -1  0  1  -1  0  0  -1  1  0       0  1  0   1  0  0   0  0  1
                       0  0 -1   0  1 -1   1  0 -1       1 -1  0   0 -1  1   0 -1  0
                       0  0  1   1  0  0   0  1  0      -1  1  0  -1  0  0  -1  0  1
                       0  0  1   0  1  0   1  0  0       1 -1  0   0 -1  0   0 -1  1
                       0  0 -1   1  0 -1   0  1 -1      -1  1  0  -1  0  1  -1  0  0
           toldfe1     1.00000000E-12 Hartree
           toldfe2     0.00000000E+00 Hartree
           tolwfr1     0.00000000E+00
           tolwfr2     1.00000000E-16
            typat      1  2
              wtk1       0.09375    0.09375    0.09375    0.18750    0.09375    0.09375
                         0.09375    0.18750    0.03125    0.03125
              wtk2       1.00000    1.00000    1.00000    1.00000    1.00000    1.00000
                         1.00000    1.00000    1.00000    1.00000    1.00000    1.00000
                         1.00000    1.00000    1.00000    1.00000    1.00000    1.00000
                         1.00000    1.00000    1.00000    1.00000    1.00000    1.00000
                         1.00000    1.00000    1.00000    1.00000    1.00000    1.00000
                         1.00000    1.00000    1.00000    1.00000    1.00000    1.00000
                         1.00000    1.00000    1.00000    1.00000    1.00000    1.00000
                         1.00000    1.00000    1.00000    1.00000    1.00000    1.00000
                         1.00000    1.00000
                       outvars : Printing only first  50 k-points.
           xangst      0.0000000000E+00  0.0000000000E+00  0.0000000000E+00
                       1.6116639123E+00  1.6116639123E+00  1.6116639123E+00
            xcart      0.0000000000E+00  0.0000000000E+00  0.0000000000E+00
                       3.0456034125E+00  3.0456034125E+00  3.0456034125E+00
             xred      0.0000000000E+00  0.0000000000E+00  0.0000000000E+00
                       2.5000000000E-01  2.5000000000E-01  2.5000000000E-01
            znucl       49.00000   51.00000

- Timing analysis has been suppressed with timopt=0

 Suggested references for the acknowledgment of ABINIT usage.

 Calculation completed.
.Delivered   0 WARNINGs and   0 COMMENTs to log file.