.Version 9.2.2 of ABINIT

 ABINIT is a project of the Universite Catholique de Louvain,
 Corning Inc. and other collaborators, see ~abinit/doc/developers/contributors.txt .
 acknowledgments of the ABINIT effort.

.Starting date : Mon  8 Mar 2021.
- ( at 15h18 )

- input  file    -> BS_1.abi
- output file    -> BS_1.abo
- root for input  files -> BS_1i
- root for output files -> BS_1o

 DATASET    1 : space group F-4 3 m (#216); Bravais cF (face-center cubic)
     intxc =       0    ionmov =       0      iscf =       7    lmnmax =       6
     lnmax =       6     mgfft =      40  mpssoang =       3    mqgrid =    3001
     natom =       2  nloc_mem =       1    nspden =       1   nspinor =       1
    nsppol =       1      nsym =      24    n1xccc =       0    ntypat =       2
    occopt =       1   xclevel =       1
-    mband =           5        mffmem =           1         mkmem =           2
       mpw =        2613          nfft =       64000          nkpt =          10
  Rough estimation (10% accuracy) of disk space for files :

 DATASET    2 : space group F-4 3 m (#216); Bravais cF (face-center cubic)
     intxc =       0    ionmov =       0      iscf =      -2    lmnmax =       6
     lnmax =       6     mgfft =      40  mpssoang =       3    mqgrid =    3001
     natom =       2  nloc_mem =       1    nspden =       1   nspinor =       1
    nsppol =       1      nsym =      24    n1xccc =       0    ntypat =       2
    occopt =       1   xclevel =       1
-    mband =           8        mffmem =           1         mkmem =          48
       mpw =        2645          nfft =       64000          nkpt =         379
  Rough estimation (10% accuracy) of disk space for files :

------------- Echo of variables that govern the present computation ------------
-
- outvars: echo of selected default values
-   iomode0 =  0 , fftalg0 =312 , wfoptalg0 =  0
-
- outvars: echo of global parameters not present in the input file
-  max_nthreads =    8
-
 -outvars: echo values of preprocessed input variables --------
            acell      1.1992657950E+01  1.1992657950E+01  1.1992657950E+01 Bohr
              amu      1.14820000E+02  1.21753000E+02
             ecut      2.50000000E+01 Hartree
           enunit1          0
           enunit2          1
-          fftalg         312
           getden1          0
           getden2         -1
             iscf1          7
             iscf2         -2
           istwfk2       3    0    0    0    0    0    0    0    0    0
                         0    0    0    0    0    0    0    0    0    0
                         0    0    0    0    0    0    0    0    0    0
                         0    0    0    0    0    0    0    0    0    0
                         0    0    0    0    0    0    0    0    0    0
                       outvar_i_n : Printing only first  50 k-points.
           jdtset        1    2
              kpt1    -1.25000000E-01 -2.50000000E-01  0.00000000E+00
                      -1.25000000E-01  5.00000000E-01  0.00000000E+00
                      -2.50000000E-01 -3.75000000E-01  0.00000000E+00
                      -1.25000000E-01 -3.75000000E-01  1.25000000E-01
                      -1.25000000E-01  2.50000000E-01  0.00000000E+00
                      -2.50000000E-01  3.75000000E-01  0.00000000E+00
                      -3.75000000E-01  5.00000000E-01  0.00000000E+00
                      -2.50000000E-01  5.00000000E-01  1.25000000E-01
                      -1.25000000E-01  0.00000000E+00  0.00000000E+00
                      -3.75000000E-01  0.00000000E+00  0.00000000E+00
              kpt2     5.00000000E-01  0.00000000E+00  0.00000000E+00
                       4.95000000E-01  0.00000000E+00  0.00000000E+00
                       4.90000000E-01  0.00000000E+00  0.00000000E+00
                       4.85000000E-01  0.00000000E+00  0.00000000E+00
                       4.80000000E-01  0.00000000E+00  0.00000000E+00
                       4.75000000E-01  0.00000000E+00  0.00000000E+00
                       4.70000000E-01  0.00000000E+00  0.00000000E+00
                       4.65000000E-01  0.00000000E+00  0.00000000E+00
                       4.60000000E-01  0.00000000E+00  0.00000000E+00
                       4.55000000E-01  0.00000000E+00  0.00000000E+00
                       4.50000000E-01  0.00000000E+00  0.00000000E+00
                       4.45000000E-01  0.00000000E+00  0.00000000E+00
                       4.40000000E-01  0.00000000E+00  0.00000000E+00
                       4.35000000E-01  0.00000000E+00  0.00000000E+00
                       4.30000000E-01  0.00000000E+00  0.00000000E+00
                       4.25000000E-01  0.00000000E+00  0.00000000E+00
                       4.20000000E-01  0.00000000E+00  0.00000000E+00
                       4.15000000E-01  0.00000000E+00  0.00000000E+00
                       4.10000000E-01  0.00000000E+00  0.00000000E+00
                       4.05000000E-01  0.00000000E+00  0.00000000E+00
                       4.00000000E-01  0.00000000E+00  0.00000000E+00
                       3.95000000E-01  0.00000000E+00  0.00000000E+00
                       3.90000000E-01  0.00000000E+00  0.00000000E+00
                       3.85000000E-01  0.00000000E+00  0.00000000E+00
                       3.80000000E-01  0.00000000E+00  0.00000000E+00
                       3.75000000E-01  0.00000000E+00  0.00000000E+00
                       3.70000000E-01  0.00000000E+00  0.00000000E+00
                       3.65000000E-01  0.00000000E+00  0.00000000E+00
                       3.60000000E-01  0.00000000E+00  0.00000000E+00
                       3.55000000E-01  0.00000000E+00  0.00000000E+00
                       3.50000000E-01  0.00000000E+00  0.00000000E+00
                       3.45000000E-01  0.00000000E+00  0.00000000E+00
                       3.40000000E-01  0.00000000E+00  0.00000000E+00
                       3.35000000E-01  0.00000000E+00  0.00000000E+00
                       3.30000000E-01  0.00000000E+00  0.00000000E+00
                       3.25000000E-01  0.00000000E+00  0.00000000E+00
                       3.20000000E-01  0.00000000E+00  0.00000000E+00
                       3.15000000E-01  0.00000000E+00  0.00000000E+00
                       3.10000000E-01  0.00000000E+00  0.00000000E+00
                       3.05000000E-01  0.00000000E+00  0.00000000E+00
                       3.00000000E-01  0.00000000E+00  0.00000000E+00
                       2.95000000E-01  0.00000000E+00  0.00000000E+00
                       2.90000000E-01  0.00000000E+00  0.00000000E+00
                       2.85000000E-01  0.00000000E+00  0.00000000E+00
                       2.80000000E-01  0.00000000E+00  0.00000000E+00
                       2.75000000E-01  0.00000000E+00  0.00000000E+00
                       2.70000000E-01  0.00000000E+00  0.00000000E+00
                       2.65000000E-01  0.00000000E+00  0.00000000E+00
                       2.60000000E-01  0.00000000E+00  0.00000000E+00
                       2.55000000E-01  0.00000000E+00  0.00000000E+00
                       outvar_i_n : Printing only first  50 k-points.
           kptopt1          1
           kptopt2         -3
         kptrlatt        4   -4    4     -4    4    4     -4   -4    4
          kptrlen1     4.79706318E+01
          kptrlen2     3.00000000E+01
P           mkmem1          2
P           mkmem2         48
            natom           2
            nband1          5
            nband2          8
           nbdbuf1          0
           nbdbuf2          2
           ndtset           2
           ndivsm1          0
           ndivsm2        100
            ngfft          40      40      40
             nkpt1         10
             nkpt2        379
            nstep         100
             nsym          24
           ntypat           2
              occ      2.000000  2.000000  2.000000  2.000000  0.000000
            rprim      0.0000000000E+00  5.0000000000E-01  5.0000000000E-01
                       5.0000000000E-01  0.0000000000E+00  5.0000000000E-01
                       5.0000000000E-01  5.0000000000E-01  0.0000000000E+00
           shiftk      5.00000000E-01  5.00000000E-01  5.00000000E-01
          spgroup         216
           symrel      1  0  0   0  1  0   0  0  1       0 -1  1   0 -1  0   1 -1  0
                      -1  0  0  -1  0  1  -1  1  0       0  1 -1   1  0 -1   0  0 -1
                      -1  0  0  -1  1  0  -1  0  1       0 -1  1   1 -1  0   0 -1  0
                       1  0  0   0  0  1   0  1  0       0  1 -1   0  0 -1   1  0 -1
                      -1  0  1  -1  1  0  -1  0  0       0 -1  0   1 -1  0   0 -1  1
                       1  0 -1   0  0 -1   0  1 -1       0  1  0   0  0  1   1  0  0
                       1  0 -1   0  1 -1   0  0 -1       0 -1  0   0 -1  1   1 -1  0
                      -1  0  1  -1  0  0  -1  1  0       0  1  0   1  0  0   0  0  1
                       0  0 -1   0  1 -1   1  0 -1       1 -1  0   0 -1  1   0 -1  0
                       0  0  1   1  0  0   0  1  0      -1  1  0  -1  0  0  -1  0  1
                       0  0  1   0  1  0   1  0  0       1 -1  0   0 -1  0   0 -1  1
                       0  0 -1   1  0 -1   0  1 -1      -1  1  0  -1  0  1  -1  0  0
           tolvrs1     1.00000000E-12
           tolvrs2     0.00000000E+00
           tolwfr1     0.00000000E+00
           tolwfr2     1.00000000E-16
            typat      1  2
              wtk1       0.09375    0.09375    0.09375    0.18750    0.09375    0.09375
                         0.09375    0.18750    0.03125    0.03125
              wtk2       1.00000    1.00000    1.00000    1.00000    1.00000    1.00000
                         1.00000    1.00000    1.00000    1.00000    1.00000    1.00000
                         1.00000    1.00000    1.00000    1.00000    1.00000    1.00000
                         1.00000    1.00000    1.00000    1.00000    1.00000    1.00000
                         1.00000    1.00000    1.00000    1.00000    1.00000    1.00000
                         1.00000    1.00000    1.00000    1.00000    1.00000    1.00000
                         1.00000    1.00000    1.00000    1.00000    1.00000    1.00000
                         1.00000    1.00000    1.00000    1.00000    1.00000    1.00000
                         1.00000    1.00000
                       outvars : Printing only first  50 k-points.
           xangst      0.0000000000E+00  0.0000000000E+00  0.0000000000E+00
                       1.5865603144E+00  1.5865603144E+00  1.5865603144E+00
            xcart      0.0000000000E+00  0.0000000000E+00  0.0000000000E+00
                       2.9981644875E+00  2.9981644875E+00  2.9981644875E+00
             xred      0.0000000000E+00  0.0000000000E+00  0.0000000000E+00
                       2.5000000000E-01  2.5000000000E-01  2.5000000000E-01
            znucl       49.00000   51.00000

 chkinp: Checking input parameters for consistency, jdtset=   1.

 chkinp: Checking input parameters for consistency, jdtset=   2.

== DATASET  1 ==================================================================
[...]
 kpt# 338, nband=  8, wtk=  1.00000, kpt=  0.7485  0.8742  0.8742 (reduced coord)
  -9.85004   -2.04673   -0.39919    0.57353    2.68662    4.26117    4.34551    5.43346
 kpt# 339, nband=  8, wtk=  1.00000, kpt=  0.7546  0.8773  0.8773 (reduced coord)
  -9.86759   -1.97882   -0.35235    0.58770    2.66536    4.23900    4.32489    5.39971
 kpt# 340, nband=  8, wtk=  1.00000, kpt=  0.7607  0.8804  0.8804 (reduced coord)
  -9.88477   -1.91039   -0.30569    0.60145    2.64365    4.21760    4.30479    5.36324
 kpt# 341, nband=  8, wtk=  1.00000, kpt=  0.7669  0.8834  0.8834 (reduced coord)
  -9.90157   -1.84147   -0.25924    0.61480    2.62146    4.19695    4.28522    5.32418
 kpt# 342, nband=  8, wtk=  1.00000, kpt=  0.7730  0.8865  0.8865 (reduced coord)
  -9.91798   -1.77206   -0.21305    0.62773    2.59876    4.17707    4.26616    5.28268
 kpt# 343, nband=  8, wtk=  1.00000, kpt=  0.7791  0.8896  0.8896 (reduced coord)
  -9.93401   -1.70219   -0.16715    0.64025    2.57553    4.15796    4.24762    5.23894
 kpt# 344, nband=  8, wtk=  1.00000, kpt=  0.7853  0.8926  0.8926 (reduced coord)
  -9.94964   -1.63185   -0.12160    0.65237    2.55173    4.13963    4.22960    5.19315
 kpt# 345, nband=  8, wtk=  1.00000, kpt=  0.7914  0.8957  0.8957 (reduced coord)
  -9.96487   -1.56106   -0.07643    0.66407    2.52731    4.12209    4.21209    5.14554
 kpt# 346, nband=  8, wtk=  1.00000, kpt=  0.7975  0.8988  0.8988 (reduced coord)
  -9.97970   -1.48985   -0.03170    0.67538    2.50223    4.10532    4.19510    5.09634
 kpt# 347, nband=  8, wtk=  1.00000, kpt=  0.8037  0.9018  0.9018 (reduced coord)
  -9.99413   -1.41821    0.01255    0.68628    2.47644    4.08935    4.17863    5.04578
 kpt# 348, nband=  8, wtk=  1.00000, kpt=  0.8098  0.9049  0.9049 (reduced coord)
 -10.00814   -1.34618    0.05627    0.69678    2.44989    4.07417    4.16267    4.99413
 kpt# 349, nband=  8, wtk=  1.00000, kpt=  0.8160  0.9080  0.9080 (reduced coord)
 -10.02174   -1.27376    0.09940    0.70689    2.42252    4.05978    4.14723    4.94162
 kpt# 350, nband=  8, wtk=  1.00000, kpt=  0.8221  0.9110  0.9110 (reduced coord)
 -10.03493   -1.20098    0.14189    0.71660    2.39427    4.04618    4.13230    4.88852
 kpt# 351, nband=  8, wtk=  1.00000, kpt=  0.8282  0.9141  0.9141 (reduced coord)
 -10.04770   -1.12784    0.18369    0.72593    2.36508    4.03338    4.11788    4.83506
 kpt# 352, nband=  8, wtk=  1.00000, kpt=  0.8344  0.9172  0.9172 (reduced coord)
 -10.06004   -1.05438    0.22474    0.73487    2.33487    4.02136    4.10398    4.78149
 kpt# 353, nband=  8, wtk=  1.00000, kpt=  0.8405  0.9202  0.9202 (reduced coord)
 -10.07196   -0.98060    0.26499    0.74343    2.30359    4.01013    4.09058    4.72805
 kpt# 354, nband=  8, wtk=  1.00000, kpt=  0.8466  0.9233  0.9233 (reduced coord)
 -10.08345   -0.90654    0.30437    0.75162    2.27115    3.99967    4.07770    4.67497
 kpt# 355, nband=  8, wtk=  1.00000, kpt=  0.8528  0.9264  0.9264 (reduced coord)
 -10.09451   -0.83221    0.34284    0.75943    2.23749    3.98998    4.06533    4.62249
 kpt# 356, nband=  8, wtk=  1.00000, kpt=  0.8589  0.9294  0.9294 (reduced coord)
 -10.10513   -0.75764    0.38032    0.76688    2.20253    3.98105    4.05347    4.57080
 kpt# 357, nband=  8, wtk=  1.00000, kpt=  0.8650  0.9325  0.9325 (reduced coord)
 -10.11532   -0.68285    0.41677    0.77396    2.16622    3.97287    4.04211    4.52012
 kpt# 358, nband=  8, wtk=  1.00000, kpt=  0.8712  0.9356  0.9356 (reduced coord)
 -10.12507   -0.60787    0.45212    0.78069    2.12847    3.96541    4.03127    4.47065
 kpt# 359, nband=  8, wtk=  1.00000, kpt=  0.8773  0.9387  0.9387 (reduced coord)
 -10.13439   -0.53273    0.48631    0.78707    2.08924    3.95866    4.02093    4.42257
 kpt# 360, nband=  8, wtk=  1.00000, kpt=  0.8834  0.9417  0.9417 (reduced coord)
 -10.14325   -0.45746    0.51928    0.79310    2.04847    3.95260    4.01110    4.37605
 kpt# 361, nband=  8, wtk=  1.00000, kpt=  0.8896  0.9448  0.9448 (reduced coord)
 -10.15168   -0.38209    0.55098    0.79878    2.00610    3.94720    4.00178    4.33126
 kpt# 362, nband=  8, wtk=  1.00000, kpt=  0.8957  0.9479  0.9479 (reduced coord)
 -10.15966   -0.30665    0.58135    0.80413    1.96212    3.94244    3.99296    4.28833
 kpt# 363, nband=  8, wtk=  1.00000, kpt=  0.9018  0.9509  0.9509 (reduced coord)
 -10.16719   -0.23120    0.61032    0.80914    1.91647    3.93827    3.98465    4.24740
 kpt# 364, nband=  8, wtk=  1.00000, kpt=  0.9080  0.9540  0.9540 (reduced coord)
 -10.17428   -0.15576    0.63785    0.81383    1.86916    3.93468    3.97685    4.20859
 kpt# 365, nband=  8, wtk=  1.00000, kpt=  0.9141  0.9571  0.9571 (reduced coord)
 -10.18091   -0.08039    0.66387    0.81819    1.82017    3.93161    3.96955    4.17199
 kpt# 366, nband=  8, wtk=  1.00000, kpt=  0.9202  0.9601  0.9601 (reduced coord)
 -10.18709   -0.00514    0.68835    0.82223    1.76952    3.92903    3.96276    4.13770
 kpt# 367, nband=  8, wtk=  1.00000, kpt=  0.9264  0.9632  0.9632 (reduced coord)
 -10.19282    0.06994    0.71122    0.82596    1.71724    3.92689    3.95647    4.10578
 kpt# 368, nband=  8, wtk=  1.00000, kpt=  0.9325  0.9663  0.9663 (reduced coord)
 -10.19809    0.14478    0.73245    0.82937    1.66337    3.92516    3.95068    4.07630
 kpt# 369, nband=  8, wtk=  1.00000, kpt=  0.9387  0.9693  0.9693 (reduced coord)
 -10.20291    0.21930    0.75198    0.83247    1.60797    3.92378    3.94540    4.04931
 kpt# 370, nband=  8, wtk=  1.00000, kpt=  0.9448  0.9724  0.9724 (reduced coord)
 -10.20727    0.29342    0.76979    0.83527    1.55113    3.92271    3.94062    4.02483
 kpt# 371, nband=  8, wtk=  1.00000, kpt=  0.9509  0.9755  0.9755 (reduced coord)
 -10.21118    0.36701    0.78582    0.83776    1.49297    3.92190    3.93635    4.00290
 kpt# 372, nband=  8, wtk=  1.00000, kpt=  0.9571  0.9785  0.9785 (reduced coord)
 -10.21463    0.43992    0.80005    0.83995    1.43363    3.92131    3.93258    3.98354
 kpt# 373, nband=  8, wtk=  1.00000, kpt=  0.9632  0.9816  0.9816 (reduced coord)
 -10.21762    0.51194    0.81244    0.84185    1.37335    3.92090    3.92931    3.96675
 kpt# 374, nband=  8, wtk=  1.00000, kpt=  0.9693  0.9847  0.9847 (reduced coord)
 -10.22015    0.58273    0.82298    0.84345    1.31246    3.92063    3.92655    3.95254
 kpt# 375, nband=  8, wtk=  1.00000, kpt=  0.9755  0.9877  0.9877 (reduced coord)
 -10.22222    0.65172    0.83163    0.84476    1.25156    3.92046    3.92429    3.94092
 kpt# 376, nband=  8, wtk=  1.00000, kpt=  0.9816  0.9908  0.9908 (reduced coord)
 -10.22383    0.71776    0.83837    0.84577    1.19179    3.92035    3.92253    3.93188
 kpt# 377, nband=  8, wtk=  1.00000, kpt=  0.9877  0.9939  0.9939 (reduced coord)
 -10.22498    0.77830    0.84320    0.84650    1.13573    3.92030    3.92127    3.92543
 kpt# 378, nband=  8, wtk=  1.00000, kpt=  0.9939  0.9969  0.9969 (reduced coord)
 -10.22567    0.82663    0.84611    0.84693    1.09009    3.92027    3.92052    3.92156
 kpt# 379, nband=  8, wtk=  1.00000, kpt=  1.0000  1.0000  1.0000 (reduced coord)
 -10.22590    0.84707    0.84707    0.84707    1.07053    3.92027    3.92027    3.92027

== END DATASET(S) ==============================================================

 -outvars: echo values of variables after computation  --------
            acell      1.1992657950E+01  1.1992657950E+01  1.1992657950E+01 Bohr
              amu      1.14820000E+02  1.21753000E+02
             ecut      2.50000000E+01 Hartree
           enunit1          0
           enunit2          1
           etotal1    -7.6835188223E+00
            fcart1    -0.0000000000E+00 -0.0000000000E+00 -0.0000000000E+00
                      -0.0000000000E+00 -0.0000000000E+00 -0.0000000000E+00
-          fftalg         312
           getden1          0
           getden2         -1
             iscf1          7
             iscf2         -2
           istwfk2       3    0    0    0    0    0    0    0    0    0
                         0    0    0    0    0    0    0    0    0    0
                         0    0    0    0    0    0    0    0    0    0
                         0    0    0    0    0    0    0    0    0    0
                         0    0    0    0    0    0    0    0    0    0
                       outvar_i_n : Printing only first  50 k-points.
           jdtset        1    2
              kpt1    -1.25000000E-01 -2.50000000E-01  0.00000000E+00
                      -1.25000000E-01  5.00000000E-01  0.00000000E+00
                      -2.50000000E-01 -3.75000000E-01  0.00000000E+00
                      -1.25000000E-01 -3.75000000E-01  1.25000000E-01
                      -1.25000000E-01  2.50000000E-01  0.00000000E+00
                      -2.50000000E-01  3.75000000E-01  0.00000000E+00
                      -3.75000000E-01  5.00000000E-01  0.00000000E+00
                      -2.50000000E-01  5.00000000E-01  1.25000000E-01
                      -1.25000000E-01  0.00000000E+00  0.00000000E+00
                      -3.75000000E-01  0.00000000E+00  0.00000000E+00
              kpt2     5.00000000E-01  0.00000000E+00  0.00000000E+00
                       4.95000000E-01  0.00000000E+00  0.00000000E+00
                       4.90000000E-01  0.00000000E+00  0.00000000E+00
                       4.85000000E-01  0.00000000E+00  0.00000000E+00
                       4.80000000E-01  0.00000000E+00  0.00000000E+00
                       4.75000000E-01  0.00000000E+00  0.00000000E+00
                       4.70000000E-01  0.00000000E+00  0.00000000E+00
                       4.65000000E-01  0.00000000E+00  0.00000000E+00
                       4.60000000E-01  0.00000000E+00  0.00000000E+00
                       4.55000000E-01  0.00000000E+00  0.00000000E+00
                       4.50000000E-01  0.00000000E+00  0.00000000E+00
                       4.45000000E-01  0.00000000E+00  0.00000000E+00
                       4.40000000E-01  0.00000000E+00  0.00000000E+00
                       4.35000000E-01  0.00000000E+00  0.00000000E+00
                       4.30000000E-01  0.00000000E+00  0.00000000E+00
                       4.25000000E-01  0.00000000E+00  0.00000000E+00
                       4.20000000E-01  0.00000000E+00  0.00000000E+00
                       4.15000000E-01  0.00000000E+00  0.00000000E+00
                       4.10000000E-01  0.00000000E+00  0.00000000E+00
                       4.05000000E-01  0.00000000E+00  0.00000000E+00
                       4.00000000E-01  0.00000000E+00  0.00000000E+00
                       3.95000000E-01  0.00000000E+00  0.00000000E+00
                       3.90000000E-01  0.00000000E+00  0.00000000E+00
                       3.85000000E-01  0.00000000E+00  0.00000000E+00
                       3.80000000E-01  0.00000000E+00  0.00000000E+00
                       3.75000000E-01  0.00000000E+00  0.00000000E+00
                       3.70000000E-01  0.00000000E+00  0.00000000E+00
                       3.65000000E-01  0.00000000E+00  0.00000000E+00
                       3.60000000E-01  0.00000000E+00  0.00000000E+00
                       3.55000000E-01  0.00000000E+00  0.00000000E+00
                       3.50000000E-01  0.00000000E+00  0.00000000E+00
                       3.45000000E-01  0.00000000E+00  0.00000000E+00
                       3.40000000E-01  0.00000000E+00  0.00000000E+00
                       3.35000000E-01  0.00000000E+00  0.00000000E+00
                       3.30000000E-01  0.00000000E+00  0.00000000E+00
                       3.25000000E-01  0.00000000E+00  0.00000000E+00
                       3.20000000E-01  0.00000000E+00  0.00000000E+00
                       3.15000000E-01  0.00000000E+00  0.00000000E+00
                       3.10000000E-01  0.00000000E+00  0.00000000E+00
                       3.05000000E-01  0.00000000E+00  0.00000000E+00
                       3.00000000E-01  0.00000000E+00  0.00000000E+00
                       2.95000000E-01  0.00000000E+00  0.00000000E+00
                       2.90000000E-01  0.00000000E+00  0.00000000E+00
                       2.85000000E-01  0.00000000E+00  0.00000000E+00
                       2.80000000E-01  0.00000000E+00  0.00000000E+00
                       2.75000000E-01  0.00000000E+00  0.00000000E+00
                       2.70000000E-01  0.00000000E+00  0.00000000E+00
                       2.65000000E-01  0.00000000E+00  0.00000000E+00
                       2.60000000E-01  0.00000000E+00  0.00000000E+00
                       2.55000000E-01  0.00000000E+00  0.00000000E+00
                       outvar_i_n : Printing only first  50 k-points.
           kptopt1          1
           kptopt2         -3
         kptrlatt        4   -4    4     -4    4    4     -4   -4    4
          kptrlen1     4.79706318E+01
          kptrlen2     3.00000000E+01
P           mkmem1          2
P           mkmem2         48
            natom           2
            nband1          5
            nband2          8
           nbdbuf1          0
           nbdbuf2          2
           ndtset           2
           ndivsm1          0
           ndivsm2        100
            ngfft          40      40      40
             nkpt1         10
             nkpt2        379
            nstep         100
             nsym          24
           ntypat           2
              occ      2.000000  2.000000  2.000000  2.000000  0.000000
            rprim      0.0000000000E+00  5.0000000000E-01  5.0000000000E-01
                       5.0000000000E-01  0.0000000000E+00  5.0000000000E-01
                       5.0000000000E-01  5.0000000000E-01  0.0000000000E+00
           shiftk      5.00000000E-01  5.00000000E-01  5.00000000E-01
          spgroup         216
           strten1     1.4078781443E-07  1.4078781443E-07  1.4078781443E-07
                       0.0000000000E+00  0.0000000000E+00  0.0000000000E+00
           symrel      1  0  0   0  1  0   0  0  1       0 -1  1   0 -1  0   1 -1  0
                      -1  0  0  -1  0  1  -1  1  0       0  1 -1   1  0 -1   0  0 -1
                      -1  0  0  -1  1  0  -1  0  1       0 -1  1   1 -1  0   0 -1  0
                       1  0  0   0  0  1   0  1  0       0  1 -1   0  0 -1   1  0 -1
                      -1  0  1  -1  1  0  -1  0  0       0 -1  0   1 -1  0   0 -1  1
                       1  0 -1   0  0 -1   0  1 -1       0  1  0   0  0  1   1  0  0
                       1  0 -1   0  1 -1   0  0 -1       0 -1  0   0 -1  1   1 -1  0
                      -1  0  1  -1  0  0  -1  1  0       0  1  0   1  0  0   0  0  1
                       0  0 -1   0  1 -1   1  0 -1       1 -1  0   0 -1  1   0 -1  0
                       0  0  1   1  0  0   0  1  0      -1  1  0  -1  0  0  -1  0  1
                       0  0  1   0  1  0   1  0  0       1 -1  0   0 -1  0   0 -1  1
                       0  0 -1   1  0 -1   0  1 -1      -1  1  0  -1  0  1  -1  0  0
           tolvrs1     1.00000000E-12
           tolvrs2     0.00000000E+00
           tolwfr1     0.00000000E+00
           tolwfr2     1.00000000E-16
            typat      1  2
              wtk1       0.09375    0.09375    0.09375    0.18750    0.09375    0.09375
                         0.09375    0.18750    0.03125    0.03125
              wtk2       1.00000    1.00000    1.00000    1.00000    1.00000    1.00000
                         1.00000    1.00000    1.00000    1.00000    1.00000    1.00000
                         1.00000    1.00000    1.00000    1.00000    1.00000    1.00000
                         1.00000    1.00000    1.00000    1.00000    1.00000    1.00000
                         1.00000    1.00000    1.00000    1.00000    1.00000    1.00000
                         1.00000    1.00000    1.00000    1.00000    1.00000    1.00000
                         1.00000    1.00000    1.00000    1.00000    1.00000    1.00000
                         1.00000    1.00000    1.00000    1.00000    1.00000    1.00000
                         1.00000    1.00000
                       outvars : Printing only first  50 k-points.
           xangst      0.0000000000E+00  0.0000000000E+00  0.0000000000E+00
                       1.5865603144E+00  1.5865603144E+00  1.5865603144E+00
            xcart      0.0000000000E+00  0.0000000000E+00  0.0000000000E+00
                       2.9981644875E+00  2.9981644875E+00  2.9981644875E+00
             xred      0.0000000000E+00  0.0000000000E+00  0.0000000000E+00
                       2.5000000000E-01  2.5000000000E-01  2.5000000000E-01
            znucl       49.00000   51.00000

- Timing analysis has been suppressed with timopt=0

 Suggested references for the acknowledgment of ABINIT usage.

 Calculation completed.
.Delivered   0 WARNINGs and   2 COMMENTs to log file.