.Version 9.2.2 of ABINIT

 ABINIT is a project of the Universite Catholique de Louvain,
 Corning Inc. and other collaborators, see ~abinit/doc/developers/contributors.txt .
 acknowledgments of the ABINIT effort.

.Starting date : Mon  8 Mar 2021.
- ( at 15h20 )

- input  file    -> BS_2.abi
- output file    -> BS_2.abo
- root for input  files -> BS_2i
- root for output files -> BS_2o

 DATASET    1 : space group F-4 3 m (#216); Bravais cF (face-center cubic)
     intxc =       0    ionmov =       0      iscf =       7    lmnmax =       6
     lnmax =       6     mgfft =      40  mpssoang =       3    mqgrid =    3001
     natom =       2  nloc_mem =       1    nspden =       1   nspinor =       1
    nsppol =       1      nsym =      24    n1xccc =       0    ntypat =       2
    occopt =       1   xclevel =       1
-    mband =           5        mffmem =           1         mkmem =           4
       mpw =        2622          nfft =       64000          nkpt =          28
  Rough estimation (10% accuracy) of disk space for files :

 DATASET    2 : space group F-4 3 m (#216); Bravais cF (face-center cubic)
     intxc =       0    ionmov =       0      iscf =      -2    lmnmax =       6
     lnmax =       6     mgfft =      40  mpssoang =       3    mqgrid =    3001
     natom =       2  nloc_mem =       1    nspden =       1   nspinor =       1
    nsppol =       1      nsym =      24    n1xccc =       0    ntypat =       2
    occopt =       1   xclevel =       1
-    mband =           8        mffmem =           1         mkmem =          48
       mpw =        2645          nfft =       64000          nkpt =         379
  Rough estimation (10% accuracy) of disk space for files :

------------- Echo of variables that govern the present computation ------------
-
- outvars: echo of selected default values
-   iomode0 =  0 , fftalg0 =312 , wfoptalg0 =  0
-
- outvars: echo of global parameters not present in the input file
-  max_nthreads =    8
-
 -outvars: echo values of preprocessed input variables --------
            acell      1.1993541055E+01  1.1993541055E+01  1.1993541055E+01 Bohr
              amu      1.14820000E+02  1.21753000E+02
             ecut      2.50000000E+01 Hartree
           enunit1          0
           enunit2          1
-          fftalg         312
           getden1          0
           getden2         -1
             iscf1          7
             iscf2         -2
           istwfk2       3    0    0    0    0    0    0    0    0    0
                         0    0    0    0    0    0    0    0    0    0
                         0    0    0    0    0    0    0    0    0    0
                         0    0    0    0    0    0    0    0    0    0
                         0    0    0    0    0    0    0    0    0    0
                       outvar_i_n : Printing only first  50 k-points.
           jdtset        1    2
              kpt1    -8.33333333E-02 -1.66666667E-01  0.00000000E+00
                      -8.33333333E-02 -3.33333333E-01  0.00000000E+00
                      -1.66666667E-01 -2.50000000E-01  0.00000000E+00
                      -8.33333333E-02 -2.50000000E-01  8.33333333E-02
                      -8.33333333E-02  5.00000000E-01  0.00000000E+00
                      -1.66666667E-01 -4.16666667E-01  0.00000000E+00
                      -8.33333333E-02 -4.16666667E-01  8.33333333E-02
                      -2.50000000E-01 -3.33333333E-01  0.00000000E+00
                      -1.66666667E-01 -3.33333333E-01  8.33333333E-02
                      -8.33333333E-02 -3.33333333E-01  1.66666667E-01
                      -8.33333333E-02  3.33333333E-01  0.00000000E+00
                      -1.66666667E-01  4.16666667E-01  0.00000000E+00
                      -2.50000000E-01  5.00000000E-01  0.00000000E+00
                      -1.66666667E-01  5.00000000E-01  8.33333333E-02
                      -3.33333333E-01 -4.16666667E-01  0.00000000E+00
                      -2.50000000E-01 -4.16666667E-01  8.33333333E-02
                      -1.66666667E-01 -4.16666667E-01  1.66666667E-01
                      -8.33333333E-02 -4.16666667E-01  2.50000000E-01
                      -8.33333333E-02  1.66666667E-01  0.00000000E+00
                      -1.66666667E-01  2.50000000E-01  0.00000000E+00
                      -2.50000000E-01  3.33333333E-01  0.00000000E+00
                      -3.33333333E-01  4.16666667E-01  0.00000000E+00
                      -4.16666667E-01  5.00000000E-01  0.00000000E+00
                      -3.33333333E-01  5.00000000E-01  8.33333333E-02
                      -2.50000000E-01  5.00000000E-01  1.66666667E-01
                      -8.33333333E-02  0.00000000E+00  0.00000000E+00
                      -2.50000000E-01  0.00000000E+00  0.00000000E+00
                      -4.16666667E-01  0.00000000E+00  0.00000000E+00
              kpt2     5.00000000E-01  0.00000000E+00  0.00000000E+00
                       4.95000000E-01  0.00000000E+00  0.00000000E+00
                       4.90000000E-01  0.00000000E+00  0.00000000E+00
                       4.85000000E-01  0.00000000E+00  0.00000000E+00
                       4.80000000E-01  0.00000000E+00  0.00000000E+00
                       4.75000000E-01  0.00000000E+00  0.00000000E+00
                       4.70000000E-01  0.00000000E+00  0.00000000E+00
                       4.65000000E-01  0.00000000E+00  0.00000000E+00
                       4.60000000E-01  0.00000000E+00  0.00000000E+00
                       4.55000000E-01  0.00000000E+00  0.00000000E+00
                       4.50000000E-01  0.00000000E+00  0.00000000E+00
                       4.45000000E-01  0.00000000E+00  0.00000000E+00
                       4.40000000E-01  0.00000000E+00  0.00000000E+00
                       4.35000000E-01  0.00000000E+00  0.00000000E+00
                       4.30000000E-01  0.00000000E+00  0.00000000E+00
                       4.25000000E-01  0.00000000E+00  0.00000000E+00
                       4.20000000E-01  0.00000000E+00  0.00000000E+00
                       4.15000000E-01  0.00000000E+00  0.00000000E+00
                       4.10000000E-01  0.00000000E+00  0.00000000E+00
                       4.05000000E-01  0.00000000E+00  0.00000000E+00
                       4.00000000E-01  0.00000000E+00  0.00000000E+00
                       3.95000000E-01  0.00000000E+00  0.00000000E+00
                       3.90000000E-01  0.00000000E+00  0.00000000E+00
                       3.85000000E-01  0.00000000E+00  0.00000000E+00
                       3.80000000E-01  0.00000000E+00  0.00000000E+00
                       3.75000000E-01  0.00000000E+00  0.00000000E+00
                       3.70000000E-01  0.00000000E+00  0.00000000E+00
                       3.65000000E-01  0.00000000E+00  0.00000000E+00
                       3.60000000E-01  0.00000000E+00  0.00000000E+00
                       3.55000000E-01  0.00000000E+00  0.00000000E+00
                       3.50000000E-01  0.00000000E+00  0.00000000E+00
                       3.45000000E-01  0.00000000E+00  0.00000000E+00
                       3.40000000E-01  0.00000000E+00  0.00000000E+00
                       3.35000000E-01  0.00000000E+00  0.00000000E+00
                       3.30000000E-01  0.00000000E+00  0.00000000E+00
                       3.25000000E-01  0.00000000E+00  0.00000000E+00
                       3.20000000E-01  0.00000000E+00  0.00000000E+00
                       3.15000000E-01  0.00000000E+00  0.00000000E+00
                       3.10000000E-01  0.00000000E+00  0.00000000E+00
                       3.05000000E-01  0.00000000E+00  0.00000000E+00
                       3.00000000E-01  0.00000000E+00  0.00000000E+00
                       2.95000000E-01  0.00000000E+00  0.00000000E+00
                       2.90000000E-01  0.00000000E+00  0.00000000E+00
                       2.85000000E-01  0.00000000E+00  0.00000000E+00
                       2.80000000E-01  0.00000000E+00  0.00000000E+00
                       2.75000000E-01  0.00000000E+00  0.00000000E+00
                       2.70000000E-01  0.00000000E+00  0.00000000E+00
                       2.65000000E-01  0.00000000E+00  0.00000000E+00
                       2.60000000E-01  0.00000000E+00  0.00000000E+00
                       2.55000000E-01  0.00000000E+00  0.00000000E+00
                       outvar_i_n : Printing only first  50 k-points.
           kptopt1          1
           kptopt2         -3
         kptrlatt        6   -6    6     -6    6    6     -6   -6    6
          kptrlen1     7.19612463E+01
          kptrlen2     3.00000000E+01
P           mkmem1          4
P           mkmem2         48
            natom           2
            nband1          5
            nband2          8
           nbdbuf1          0
           nbdbuf2          2
           ndtset           2
           ndivsm1          0
           ndivsm2        100
            ngfft          40      40      40
             nkpt1         28
             nkpt2        379
            nstep         100
             nsym          24
           ntypat           2
              occ      2.000000  2.000000  2.000000  2.000000  0.000000
            rprim      0.0000000000E+00  5.0000000000E-01  5.0000000000E-01
                       5.0000000000E-01  0.0000000000E+00  5.0000000000E-01
                       5.0000000000E-01  5.0000000000E-01  0.0000000000E+00
           shiftk      5.00000000E-01  5.00000000E-01  5.00000000E-01
          spgroup         216
           symrel      1  0  0   0  1  0   0  0  1       0 -1  1   0 -1  0   1 -1  0
                      -1  0  0  -1  0  1  -1  1  0       0  1 -1   1  0 -1   0  0 -1
                      -1  0  0  -1  1  0  -1  0  1       0 -1  1   1 -1  0   0 -1  0
                       1  0  0   0  0  1   0  1  0       0  1 -1   0  0 -1   1  0 -1
                      -1  0  1  -1  1  0  -1  0  0       0 -1  0   1 -1  0   0 -1  1
                       1  0 -1   0  0 -1   0  1 -1       0  1  0   0  0  1   1  0  0
                       1  0 -1   0  1 -1   0  0 -1       0 -1  0   0 -1  1   1 -1  0
                      -1  0  1  -1  0  0  -1  1  0       0  1  0   1  0  0   0  0  1
                       0  0 -1   0  1 -1   1  0 -1       1 -1  0   0 -1  1   0 -1  0
                       0  0  1   1  0  0   0  1  0      -1  1  0  -1  0  0  -1  0  1
                       0  0  1   0  1  0   1  0  0       1 -1  0   0 -1  0   0 -1  1
                       0  0 -1   1  0 -1   0  1 -1      -1  1  0  -1  0  1  -1  0  0
           tolvrs1     1.00000000E-12
           tolvrs2     0.00000000E+00
           tolwfr1     0.00000000E+00
           tolwfr2     1.00000000E-16
            typat      1  2
              wtk1       0.02778    0.02778    0.02778    0.05556    0.02778    0.02778
                         0.05556    0.02778    0.05556    0.05556    0.02778    0.02778
                         0.02778    0.05556    0.02778    0.05556    0.05556    0.05556
                         0.02778    0.02778    0.02778    0.02778    0.02778    0.05556
                         0.05556    0.00926    0.00926    0.00926
[...]
 kpt# 347, nband=  8, wtk=  1.00000, kpt=  0.8037  0.9018  0.9018 (reduced coord)
  -9.99583   -1.42104    0.01000    0.68315    2.47295    4.08707    4.17670    5.04308
 kpt# 348, nband=  8, wtk=  1.00000, kpt=  0.8098  0.9049  0.9049 (reduced coord)
 -10.00984   -1.34903    0.05369    0.69364    2.44638    4.07190    4.16075    4.99146
 kpt# 349, nband=  8, wtk=  1.00000, kpt=  0.8160  0.9080  0.9080 (reduced coord)
 -10.02343   -1.27663    0.09679    0.70374    2.41899    4.05753    4.14531    4.93898
 kpt# 350, nband=  8, wtk=  1.00000, kpt=  0.8221  0.9110  0.9110 (reduced coord)
 -10.03661   -1.20387    0.13925    0.71345    2.39073    4.04395    4.13038    4.88590
 kpt# 351, nband=  8, wtk=  1.00000, kpt=  0.8282  0.9141  0.9141 (reduced coord)
 -10.04937   -1.13076    0.18102    0.72277    2.36152    4.03116    4.11597    4.83248
 kpt# 352, nband=  8, wtk=  1.00000, kpt=  0.8344  0.9172  0.9172 (reduced coord)
 -10.06171   -1.05732    0.22204    0.73171    2.33129    4.01916    4.10207    4.77894
 kpt# 353, nband=  8, wtk=  1.00000, kpt=  0.8405  0.9202  0.9202 (reduced coord)
 -10.07362   -0.98357    0.26226    0.74026    2.29999    4.00794    4.08868    4.72554
 kpt# 354, nband=  8, wtk=  1.00000, kpt=  0.8466  0.9233  0.9233 (reduced coord)
 -10.08511   -0.90953    0.30162    0.74844    2.26753    3.99751    4.07580    4.67250
 kpt# 355, nband=  8, wtk=  1.00000, kpt=  0.8528  0.9264  0.9264 (reduced coord)
 -10.09616   -0.83522    0.34005    0.75625    2.23385    3.98784    4.06343    4.62005
 kpt# 356, nband=  8, wtk=  1.00000, kpt=  0.8589  0.9294  0.9294 (reduced coord)
 -10.10678   -0.76067    0.37751    0.76370    2.19888    3.97892    4.05157    4.56840
 kpt# 357, nband=  8, wtk=  1.00000, kpt=  0.8650  0.9325  0.9325 (reduced coord)
 -10.11697   -0.68591    0.41393    0.77078    2.16255    3.97076    4.04022    4.51776
 kpt# 358, nband=  8, wtk=  1.00000, kpt=  0.8712  0.9356  0.9356 (reduced coord)
 -10.12672   -0.61095    0.44925    0.77750    2.12479    3.96332    4.02938    4.46833
 kpt# 359, nband=  8, wtk=  1.00000, kpt=  0.8773  0.9387  0.9387 (reduced coord)
 -10.13602   -0.53583    0.48341    0.78387    2.08554    3.95659    4.01905    4.42029
 kpt# 360, nband=  8, wtk=  1.00000, kpt=  0.8834  0.9417  0.9417 (reduced coord)
 -10.14489   -0.46058    0.51636    0.78990    2.04475    3.95055    4.00922    4.37381
 kpt# 361, nband=  8, wtk=  1.00000, kpt=  0.8896  0.9448  0.9448 (reduced coord)
 -10.15331   -0.38524    0.54803    0.79558    2.00237    3.94516    3.99990    4.32905
 kpt# 362, nband=  8, wtk=  1.00000, kpt=  0.8957  0.9479  0.9479 (reduced coord)
 -10.16129   -0.30983    0.57837    0.80092    1.95837    3.94042    3.99109    4.28616
 kpt# 363, nband=  8, wtk=  1.00000, kpt=  0.9018  0.9509  0.9509 (reduced coord)
 -10.16882   -0.23440    0.60731    0.80594    1.91271    3.93627    3.98278    4.24527
 kpt# 364, nband=  8, wtk=  1.00000, kpt=  0.9080  0.9540  0.9540 (reduced coord)
 -10.17590   -0.15898    0.63482    0.81062    1.86539    3.93269    3.97498    4.20649
 kpt# 365, nband=  8, wtk=  1.00000, kpt=  0.9141  0.9571  0.9571 (reduced coord)
 -10.18253   -0.08364    0.66082    0.81498    1.81639    3.92963    3.96768    4.16992
 kpt# 366, nband=  8, wtk=  1.00000, kpt=  0.9202  0.9601  0.9601 (reduced coord)
 -10.18870   -0.00840    0.68527    0.81901    1.76574    3.92707    3.96089    4.13566
 kpt# 367, nband=  8, wtk=  1.00000, kpt=  0.9264  0.9632  0.9632 (reduced coord)
 -10.19443    0.06665    0.70812    0.82274    1.71345    3.92495    3.95460    4.10377
 kpt# 368, nband=  8, wtk=  1.00000, kpt=  0.9325  0.9663  0.9663 (reduced coord)
 -10.19970    0.14147    0.72933    0.82615    1.65958    3.92323    3.94882    4.07432
 kpt# 369, nband=  8, wtk=  1.00000, kpt=  0.9387  0.9693  0.9693 (reduced coord)
 -10.20452    0.21598    0.74885    0.82925    1.60418    3.92186    3.94354    4.04735
 kpt# 370, nband=  8, wtk=  1.00000, kpt=  0.9448  0.9724  0.9724 (reduced coord)
 -10.20888    0.29007    0.76663    0.83204    1.54734    3.92080    3.93877    4.02289
 kpt# 371, nband=  8, wtk=  1.00000, kpt=  0.9509  0.9755  0.9755 (reduced coord)
 -10.21278    0.36365    0.78265    0.83453    1.48917    3.92001    3.93449    4.00098
 kpt# 372, nband=  8, wtk=  1.00000, kpt=  0.9571  0.9785  0.9785 (reduced coord)
 -10.21623    0.43655    0.79687    0.83673    1.42983    3.91943    3.93072    3.98163
 kpt# 373, nband=  8, wtk=  1.00000, kpt=  0.9632  0.9816  0.9816 (reduced coord)
 -10.21922    0.50855    0.80925    0.83862    1.36955    3.91903    3.92746    3.96486
 kpt# 374, nband=  8, wtk=  1.00000, kpt=  0.9693  0.9847  0.9847 (reduced coord)
 -10.22175    0.57934    0.81977    0.84022    1.30866    3.91876    3.92470    3.95066
 kpt# 375, nband=  8, wtk=  1.00000, kpt=  0.9755  0.9877  0.9877 (reduced coord)
 -10.22382    0.64832    0.82841    0.84153    1.24775    3.91859    3.92243    3.93905
 kpt# 376, nband=  8, wtk=  1.00000, kpt=  0.9816  0.9908  0.9908 (reduced coord)
 -10.22543    0.71439    0.83515    0.84254    1.18795    3.91850    3.92068    3.93002
 kpt# 377, nband=  8, wtk=  1.00000, kpt=  0.9877  0.9939  0.9939 (reduced coord)
 -10.22658    0.77496    0.83998    0.84326    1.13185    3.91845    3.91942    3.92357
 kpt# 378, nband=  8, wtk=  1.00000, kpt=  0.9939  0.9969  0.9969 (reduced coord)
 -10.22727    0.82335    0.84288    0.84370    1.08614    3.91842    3.91867    3.91971
 kpt# 379, nband=  8, wtk=  1.00000, kpt=  1.0000  1.0000  1.0000 (reduced coord)
 -10.22750    0.84384    0.84384    0.84384    1.06654    3.91842    3.91842    3.91842

== END DATASET(S) ==============================================================

 -outvars: echo values of variables after computation  --------
            acell      1.1993541055E+01  1.1993541055E+01  1.1993541055E+01 Bohr
              amu      1.14820000E+02  1.21753000E+02
             ecut      2.50000000E+01 Hartree
           enunit1          0
           enunit2          1
           etotal1    -7.6836517491E+00
            fcart1    -0.0000000000E+00 -0.0000000000E+00 -0.0000000000E+00
                      -0.0000000000E+00 -0.0000000000E+00 -0.0000000000E+00
-          fftalg         312
           getden1          0
           getden2         -1
             iscf1          7
             iscf2         -2
           istwfk2       3    0    0    0    0    0    0    0    0    0
                         0    0    0    0    0    0    0    0    0    0
                         0    0    0    0    0    0    0    0    0    0
                         0    0    0    0    0    0    0    0    0    0
                         0    0    0    0    0    0    0    0    0    0
                       outvar_i_n : Printing only first  50 k-points.
           jdtset        1    2
              kpt1    -8.33333333E-02 -1.66666667E-01  0.00000000E+00
                      -8.33333333E-02 -3.33333333E-01  0.00000000E+00
                      -1.66666667E-01 -2.50000000E-01  0.00000000E+00
                      -8.33333333E-02 -2.50000000E-01  8.33333333E-02
                      -8.33333333E-02  5.00000000E-01  0.00000000E+00
                      -1.66666667E-01 -4.16666667E-01  0.00000000E+00
                      -8.33333333E-02 -4.16666667E-01  8.33333333E-02
                      -2.50000000E-01 -3.33333333E-01  0.00000000E+00
                      -1.66666667E-01 -3.33333333E-01  8.33333333E-02
                      -8.33333333E-02 -3.33333333E-01  1.66666667E-01
                      -8.33333333E-02  3.33333333E-01  0.00000000E+00
                      -1.66666667E-01  4.16666667E-01  0.00000000E+00
                      -2.50000000E-01  5.00000000E-01  0.00000000E+00
                      -1.66666667E-01  5.00000000E-01  8.33333333E-02
                      -3.33333333E-01 -4.16666667E-01  0.00000000E+00
                      -2.50000000E-01 -4.16666667E-01  8.33333333E-02
                      -1.66666667E-01 -4.16666667E-01  1.66666667E-01
                      -8.33333333E-02 -4.16666667E-01  2.50000000E-01
                      -8.33333333E-02  1.66666667E-01  0.00000000E+00
                      -1.66666667E-01  2.50000000E-01  0.00000000E+00
                      -2.50000000E-01  3.33333333E-01  0.00000000E+00
                      -3.33333333E-01  4.16666667E-01  0.00000000E+00
                      -4.16666667E-01  5.00000000E-01  0.00000000E+00
                      -3.33333333E-01  5.00000000E-01  8.33333333E-02
                      -2.50000000E-01  5.00000000E-01  1.66666667E-01
                      -8.33333333E-02  0.00000000E+00  0.00000000E+00
                      -2.50000000E-01  0.00000000E+00  0.00000000E+00
                      -4.16666667E-01  0.00000000E+00  0.00000000E+00
              kpt2     5.00000000E-01  0.00000000E+00  0.00000000E+00
                       4.95000000E-01  0.00000000E+00  0.00000000E+00
                       4.90000000E-01  0.00000000E+00  0.00000000E+00
                       4.85000000E-01  0.00000000E+00  0.00000000E+00
                       4.80000000E-01  0.00000000E+00  0.00000000E+00
                       4.75000000E-01  0.00000000E+00  0.00000000E+00
                       4.70000000E-01  0.00000000E+00  0.00000000E+00
                       4.65000000E-01  0.00000000E+00  0.00000000E+00
                       4.60000000E-01  0.00000000E+00  0.00000000E+00
                       4.55000000E-01  0.00000000E+00  0.00000000E+00
                       4.50000000E-01  0.00000000E+00  0.00000000E+00
                       4.45000000E-01  0.00000000E+00  0.00000000E+00
                       4.40000000E-01  0.00000000E+00  0.00000000E+00
                       4.35000000E-01  0.00000000E+00  0.00000000E+00
                       4.30000000E-01  0.00000000E+00  0.00000000E+00
                       4.25000000E-01  0.00000000E+00  0.00000000E+00
                       4.20000000E-01  0.00000000E+00  0.00000000E+00
                       4.15000000E-01  0.00000000E+00  0.00000000E+00
                       4.10000000E-01  0.00000000E+00  0.00000000E+00
                       4.05000000E-01  0.00000000E+00  0.00000000E+00
                       4.00000000E-01  0.00000000E+00  0.00000000E+00
                       3.95000000E-01  0.00000000E+00  0.00000000E+00
                       3.90000000E-01  0.00000000E+00  0.00000000E+00
                       3.85000000E-01  0.00000000E+00  0.00000000E+00
                       3.80000000E-01  0.00000000E+00  0.00000000E+00
                       3.75000000E-01  0.00000000E+00  0.00000000E+00
                       3.70000000E-01  0.00000000E+00  0.00000000E+00
                       3.65000000E-01  0.00000000E+00  0.00000000E+00
                       3.60000000E-01  0.00000000E+00  0.00000000E+00
                       3.55000000E-01  0.00000000E+00  0.00000000E+00
                       3.50000000E-01  0.00000000E+00  0.00000000E+00
                       3.45000000E-01  0.00000000E+00  0.00000000E+00
                       3.40000000E-01  0.00000000E+00  0.00000000E+00
                       3.35000000E-01  0.00000000E+00  0.00000000E+00
                       3.30000000E-01  0.00000000E+00  0.00000000E+00
                       3.25000000E-01  0.00000000E+00  0.00000000E+00
                       3.20000000E-01  0.00000000E+00  0.00000000E+00
                       3.15000000E-01  0.00000000E+00  0.00000000E+00
                       3.10000000E-01  0.00000000E+00  0.00000000E+00
                       3.05000000E-01  0.00000000E+00  0.00000000E+00
                       3.00000000E-01  0.00000000E+00  0.00000000E+00
                       2.95000000E-01  0.00000000E+00  0.00000000E+00
                       2.90000000E-01  0.00000000E+00  0.00000000E+00
                       2.85000000E-01  0.00000000E+00  0.00000000E+00
                       2.80000000E-01  0.00000000E+00  0.00000000E+00
                       2.75000000E-01  0.00000000E+00  0.00000000E+00
                       2.70000000E-01  0.00000000E+00  0.00000000E+00
                       2.65000000E-01  0.00000000E+00  0.00000000E+00
                       2.60000000E-01  0.00000000E+00  0.00000000E+00
                       2.55000000E-01  0.00000000E+00  0.00000000E+00
                       outvar_i_n : Printing only first  50 k-points.
           kptopt1          1
           kptopt2         -3
         kptrlatt        6   -6    6     -6    6    6     -6   -6    6
          kptrlen1     7.19612463E+01
          kptrlen2     3.00000000E+01
P           mkmem1          4
P           mkmem2         48
            natom           2
            nband1          5
            nband2          8
           nbdbuf1          0
           nbdbuf2          2
           ndtset           2
           ndivsm1          0
           ndivsm2        100
            ngfft          40      40      40
             nkpt1         28
             nkpt2        379
            nstep         100
             nsym          24
           ntypat           2
              occ      2.000000  2.000000  2.000000  2.000000  0.000000
            rprim      0.0000000000E+00  5.0000000000E-01  5.0000000000E-01
                       5.0000000000E-01  0.0000000000E+00  5.0000000000E-01
                       5.0000000000E-01  5.0000000000E-01  0.0000000000E+00
           shiftk      5.00000000E-01  5.00000000E-01  5.00000000E-01
          spgroup         216
           strten1     1.4074742275E-07  1.4074742275E-07  1.4074742275E-07
                       0.0000000000E+00  0.0000000000E+00  0.0000000000E+00
           symrel      1  0  0   0  1  0   0  0  1       0 -1  1   0 -1  0   1 -1  0
                      -1  0  0  -1  0  1  -1  1  0       0  1 -1   1  0 -1   0  0 -1
                      -1  0  0  -1  1  0  -1  0  1       0 -1  1   1 -1  0   0 -1  0
                       1  0  0   0  0  1   0  1  0       0  1 -1   0  0 -1   1  0 -1
                      -1  0  1  -1  1  0  -1  0  0       0 -1  0   1 -1  0   0 -1  1
                       1  0 -1   0  0 -1   0  1 -1       0  1  0   0  0  1   1  0  0
                       1  0 -1   0  1 -1   0  0 -1       0 -1  0   0 -1  1   1 -1  0
                      -1  0  1  -1  0  0  -1  1  0       0  1  0   1  0  0   0  0  1
                       0  0 -1   0  1 -1   1  0 -1       1 -1  0   0 -1  1   0 -1  0
                       0  0  1   1  0  0   0  1  0      -1  1  0  -1  0  0  -1  0  1
                       0  0  1   0  1  0   1  0  0       1 -1  0   0 -1  0   0 -1  1
                       0  0 -1   1  0 -1   0  1 -1      -1  1  0  -1  0  1  -1  0  0
           tolvrs1     1.00000000E-12
           tolvrs2     0.00000000E+00
           tolwfr1     0.00000000E+00
           tolwfr2     1.00000000E-16
            typat      1  2
              wtk1       0.02778    0.02778    0.02778    0.05556    0.02778    0.02778
                         0.05556    0.02778    0.05556    0.05556    0.02778    0.02778
                         0.02778    0.05556    0.02778    0.05556    0.05556    0.05556
                         0.02778    0.02778    0.02778    0.02778    0.02778    0.05556
                         0.05556    0.00926    0.00926    0.00926
              wtk2       1.00000    1.00000    1.00000    1.00000    1.00000    1.00000
                         1.00000    1.00000    1.00000    1.00000    1.00000    1.00000
                         1.00000    1.00000    1.00000    1.00000    1.00000    1.00000
                         1.00000    1.00000    1.00000    1.00000    1.00000    1.00000
                         1.00000    1.00000    1.00000    1.00000    1.00000    1.00000
                         1.00000    1.00000    1.00000    1.00000    1.00000    1.00000
                         1.00000    1.00000    1.00000    1.00000    1.00000    1.00000
                         1.00000    1.00000    1.00000    1.00000    1.00000    1.00000
                         1.00000    1.00000
                       outvars : Printing only first  50 k-points.
           xangst      0.0000000000E+00  0.0000000000E+00  0.0000000000E+00
                       1.5866771441E+00  1.5866771441E+00  1.5866771441E+00
            xcart      0.0000000000E+00  0.0000000000E+00  0.0000000000E+00
                       2.9983852637E+00  2.9983852637E+00  2.9983852637E+00
             xred      0.0000000000E+00  0.0000000000E+00  0.0000000000E+00
                       2.5000000000E-01  2.5000000000E-01  2.5000000000E-01
            znucl       49.00000   51.00000

- Timing analysis has been suppressed with timopt=0

 Suggested references for the acknowledgment of ABINIT usage.

 Calculation completed.
.Delivered   0 WARNINGs and   2 COMMENTs to log file.