.Version 9.2.2 of ABINIT

 ABINIT is a project of the Universite Catholique de Louvain,
 Corning Inc. and other collaborators, see ~abinit/doc/developers/contributors.txt .
 acknowledgments of the ABINIT effort.

.Starting date : Mon  8 Mar 2021.
- ( at 15h23 )

 === Build Information ===
  Version       : 9.2.2
  Build target  : arm_darwin20.2.0_gnu10.2
  Build date    : 20210119

 === Optimizations ===
  Debug level        : basic
  Optimization level : standard
  Architecture       : _

 === Multicore ===
  Parallel build : yes
  Parallel I/O   :
  openMP support : yes
  GPU support    :

 === Connectors / Fallbacks ===
  LINALG flavor  : netlib
  FFT flavor     : fftw3
  HDF5           : yes
  NetCDF         : yes
  NetCDF Fortran : yes
  Wannier90      : yes

 === Experimental features ===
  Exports             :
  GW double-precision :

 Default optimizations:
   -O2 -mtune=native -march=native

 Optimizations for 43_ptgroups:
   -O0

 CPP options activated during the build:

                   CC_LLVM                  CXX_LLVM                    FC_GNU

 HAVE_FC_ALLOCATABLE_DT...             HAVE_FC_ASYNC         HAVE_FC_BACKTRACE

  HAVE_FC_COMMAND_ARGUMENT      HAVE_FC_COMMAND_LINE        HAVE_FC_CONTIGUOUS

           HAVE_FC_CPUTIME              HAVE_FC_EXIT             HAVE_FC_FLUSH

             HAVE_FC_GAMMA            HAVE_FC_GETENV   HAVE_FC_IEEE_ARITHMETIC

   HAVE_FC_IEEE_EXCEPTIONS          HAVE_FC_INT_QUAD             HAVE_FC_IOMSG

     HAVE_FC_ISO_C_BINDING  HAVE_FC_ISO_FORTRAN_2008        HAVE_FC_LONG_LINES

        HAVE_FC_MOVE_ALLOC  HAVE_FC_ON_THE_FLY_SHAPE           HAVE_FC_PRIVATE

         HAVE_FC_PROTECTED           HAVE_FC_SHIFTLR         HAVE_FC_STREAM_IO

            HAVE_FC_SYSTEM                HAVE_FFTW3            HAVE_FFTW3_MPI

          HAVE_FORTRAN2003                 HAVE_HDF5             HAVE_HDF5_MPI

     HAVE_LINALG_ZDOTU_B*G                  HAVE_MPI                 HAVE_MPI2

         HAVE_MPI2_INPLACE       HAVE_MPI_IALLGATHER       HAVE_MPI_IALLREDUCE

        HAVE_MPI_IALLTOALL       HAVE_MPI_IALLTOALLV           HAVE_MPI_IBCAST

         HAVE_MPI_IGATHERV        HAVE_MPI_INTEGER16               HAVE_MPI_IO

 HAVE_MPI_TYPE_CREATE_S...               HAVE_NETCDF       HAVE_NETCDF_FORTRAN

   HAVE_NETCDF_FORTRAN_MPI           HAVE_NETCDF_MPI         HAVE_OMP_COLLAPSE

               HAVE_OPENMP         HAVE_TIMER_ABINIT            HAVE_WANNIER90

                  HAVE_XML

- input  file    -> BS_3.abi
- output file    -> BS_3.abo
- root for input  files -> BS_3i
- root for output files -> BS_3o

--- !WARNING
src_file: m_nctk.F90
src_line: 564
message: |
...

  Asked to delete not existent file: __TMP_FILE__

--- !WARNING
src_file: m_nctk.F90
src_line: 584
message: |
    The netcdf library does not support parallel IO, see message above
    Abinit won't be able to produce files in parallel e.g. when paral_kgb==1 is used.
...

ABI_PSPDIR_InSb  found in environment, with value /Users/lassi/Desktop/abinit_InSb/simulations/pseudos
-instrng: 74 lines of input have been read from file BS_3.abi

 For atom type 1, psp file is /Users/lassi/Desktop/abinit_InSb/simulations/pseudos/49in.3.hgh
 For atom type 2, psp file is /Users/lassi/Desktop/abinit_InSb/simulations/pseudos/51sb.5.hgh
  read the values zionpsp=  3.0 , pspcod=   3 , lmax=   2
  read the values zionpsp=  5.0 , pspcod=   3 , lmax=   2

 inpspheads: deduce mpsang = 3, n1xccc = 0.

 invars1m : enter jdtset= 1

 symlatt: the Bravais lattice is cF (face-centered cubic)
  xred   is defined in input file
 ingeo: takes atomic coordinates from input array xred

--- !WARNING
src_file: m_ingeo.F90
src_line: 887
message: |
    The tolerance on symmetries =   1.000E-05 is bigger than 1.0e-8.
    In order to avoid spurious effects, the atomic coordinates have been
    symmetrized before storing them in the dataset internal variable.
    So, do not be surprised by the fact that your input variables (xcart, xred, ...)
    do not correspond to the ones echoed by ABINIT, the latter being used to do the calculations.
    In order to avoid this symmetrization (e.g. for specific debugging/development), decrease tolsym to 1.0e-8 or lower.
...

 symlatt: the Bravais lattice is cF (face-centered cubic)

 symlatt: the Bravais lattice is cF (face-centered cubic)
 symspgr: spgroup= 216  F-4 3 m   (=Td^2)
 symspgr: optical characteristics = isotropic

 invars1m : enter jdtset= 2

 symlatt: the Bravais lattice is cF (face-centered cubic)
  xred   is defined in input file
 ingeo: takes atomic coordinates from input array xred

--- !WARNING
src_file: m_ingeo.F90
src_line: 887
message: |
    The tolerance on symmetries =   1.000E-05 is bigger than 1.0e-8.
    In order to avoid spurious effects, the atomic coordinates have been
    symmetrized before storing them in the dataset internal variable.
    So, do not be surprised by the fact that your input variables (xcart, xred, ...)
    do not correspond to the ones echoed by ABINIT, the latter being used to do the calculations.
    In order to avoid this symmetrization (e.g. for specific debugging/development), decrease tolsym to 1.0e-8 or lower.
...

 symlatt: the Bravais lattice is cF (face-centered cubic)

 symlatt: the Bravais lattice is cF (face-centered cubic)
 symspgr: spgroup= 216  F-4 3 m   (=Td^2)
 symspgr: optical characteristics = isotropic
 Real(R)+Recip(G) space primitive vectors, cartesian coordinates (Bohr,Bohr^-1):
 R(1)=  0.0000000  5.9968633  5.9968633  G(1)= -0.0833769  0.0833769  0.0833769
 R(2)=  5.9968633  0.0000000  5.9968633  G(2)=  0.0833769 -0.0833769  0.0833769
 R(3)=  5.9968633  5.9968633  0.0000000  G(3)=  0.0833769  0.0833769 -0.0833769
 Unit cell volume ucvol=  4.3132283E+02 bohr^3
 Unit cell volume ucvol=  4.3132283E+02 bohr^3
 Angles (23,13,12)=  6.00000000E+01  6.00000000E+01  6.00000000E+01 degrees
 Angles (23,13,12)=  6.00000000E+01  6.00000000E+01  6.00000000E+01 degrees
   7.2206531773366486E-002   8.3376921113204813E-002  0.11791277262720590

 mknormpath : total number of points on the path:      379

 Number of divisions for each segment of the normalized path:
 0.50000 0.00000 0.00000 ==>  0.00000 0.00000 0.00000 ( ndiv:   100 )
 0.00000 0.00000 0.00000 ==>  0.00000 0.50000 0.50000 ( ndiv:   115 )
 0.00000 0.50000 0.50000 ==>  1.00000 1.00000 1.00000 ( ndiv:   163 )

 invars2: take the default value of fband=  1.25000000E-01
 Real(R)+Recip(G) space primitive vectors, cartesian coordinates (Bohr,Bohr^-1):
 R(1)=  0.0000000  5.9968633  5.9968633  G(1)= -0.0833769  0.0833769  0.0833769
 R(2)=  5.9968633  0.0000000  5.9968633  G(2)=  0.0833769 -0.0833769  0.0833769
 R(3)=  5.9968633  5.9968633  0.0000000  G(3)=  0.0833769  0.0833769 -0.0833769
 Unit cell volume ucvol=  4.3132283E+02 bohr^3
 Unit cell volume ucvol=  4.3132283E+02 bohr^3
 Angles (23,13,12)=  6.00000000E+01  6.00000000E+01  6.00000000E+01 degrees
 Angles (23,13,12)=  6.00000000E+01  6.00000000E+01  6.00000000E+01 degrees
   7.2206531773366486E-002   8.3376921113204813E-002  0.11791277262720590

 mknormpath : total number of points on the path:      379

 Number of divisions for each segment of the normalized path:
 0.50000 0.00000 0.00000 ==>  0.00000 0.00000 0.00000 ( ndiv:   100 )
 0.00000 0.00000 0.00000 ==>  0.00000 0.50000 0.50000 ( ndiv:   115 )
 0.00000 0.50000 0.50000 ==>  1.00000 1.00000 1.00000 ( ndiv:   163 )

--- !WARNING
src_file: m_mpinfo.F90
src_line: 2281
message: |
    nkpt*nsppol (60) is not a multiple of nproc_kpt (8)
    The k-point parallelisation is inefficient. (Ignore this warning if this is not a GS run)
...

 For input ecut=  2.500000E+01 best grid ngfft=      40      40      40
       max ecut=  2.744425E+01

 ==== FFT mesh ====
  FFT mesh divisions ........................    40   40   40
  Augmented FFT divisions ...................    41   41   40
  FFT algorithm .............................   312
  FFT cache size ............................    16
 getmpw: optimal value of mpw= 2637

--- !WARNING
src_file: m_mpinfo.F90
src_line: 2281
message: |
    nkpt*nsppol (379) is not a multiple of nproc_kpt (8)
    The k-point parallelisation is inefficient. (Ignore this warning if this is not a GS run)
...

 For input ecut=  2.500000E+01 best grid ngfft=      40      40      40
       max ecut=  2.744425E+01

 ==== FFT mesh ====
  FFT mesh divisions ........................    40   40   40
  Augmented FFT divisions ...................    41   41   40
  FFT algorithm .............................   312
  FFT cache size ............................    16
 getmpw: optimal value of mpw= 2645

 DATASET    1 : space group F-4 3 m (#216); Bravais cF (face-center cubic)

 getdim_nloc : deduce lmnmax  =  14, lnmax  =   6,
                      lmnmaxso=  25, lnmaxso=   9.
     intxc =       0    ionmov =       0      iscf =       7    lmnmax =       6
     lnmax =       6     mgfft =      40  mpssoang =       3    mqgrid =    3001
     natom =       2  nloc_mem =       1    nspden =       1   nspinor =       1
    nsppol =       1      nsym =      24    n1xccc =       0    ntypat =       2
    occopt =       1   xclevel =       1
-    mband =           5        mffmem =           1         mkmem =           8
       mpw =        2637          nfft =       64000          nkpt =          60
  Rough estimation (10% accuracy) of disk space for files :

 The job will continue.

 DATASET    2 : space group F-4 3 m (#216); Bravais cF (face-center cubic)

 getdim_nloc : deduce lmnmax  =  14, lnmax  =   6,
                      lmnmaxso=  25, lnmaxso=   9.
     intxc =       0    ionmov =       0      iscf =      -2    lmnmax =       6
     lnmax =       6     mgfft =      40  mpssoang =       3    mqgrid =    3001
     natom =       2  nloc_mem =       1    nspden =       1   nspinor =       1
    nsppol =       1      nsym =      24    n1xccc =       0    ntypat =       2
    occopt =       1   xclevel =       1
-    mband =           8        mffmem =           1         mkmem =          48
       mpw =        2645          nfft =       64000          nkpt =         379
  Rough estimation (10% accuracy) of disk space for files :

 The job will continue.
------------- Echo of variables that govern the present computation ------------
-
- outvars: echo of selected default values
-   iomode0 =  0 , fftalg0 =312 , wfoptalg0 =  0
-
- outvars: echo of global parameters not present in the input file
-  max_nthreads =    8
-
 -outvars: echo values of preprocessed input variables --------

 These variables are accessible in NetCDF format (BS_3o_OUT.nc)

            acell      1.1993726641E+01  1.1993726641E+01  1.1993726641E+01 Bohr
              amu      1.14820000E+02  1.21753000E+02
             ecut      2.50000000E+01 Hartree
           enunit1          0
           enunit2          1
-          fftalg         312
           getden1          0
           getden2         -1
             iscf1          7
             iscf2         -2
           istwfk2       3    0    0    0    0    0    0    0    0    0
                         0    0    0    0    0    0    0    0    0    0
                         0    0    0    0    0    0    0    0    0    0
[...]
 -10.16147   -0.31035    0.57791    0.80043    1.95772    3.94005    3.99074    4.28577
 kpt# 363, nband=  8, wtk=  1.00000, kpt=  0.9018  0.9509  0.9509 (reduced coord)
 -10.16899   -0.23492    0.60685    0.80544    1.91206    3.93590    3.98243    4.24488
 kpt# 364, nband=  8, wtk=  1.00000, kpt=  0.9080  0.9540  0.9540 (reduced coord)
 -10.17607   -0.15952    0.63435    0.81012    1.86474    3.93232    3.97463    4.20610
 kpt# 365, nband=  8, wtk=  1.00000, kpt=  0.9141  0.9571  0.9571 (reduced coord)
 -10.18270   -0.08417    0.66035    0.81448    1.81574    3.92927    3.96734    4.16954
 kpt# 366, nband=  8, wtk=  1.00000, kpt=  0.9202  0.9601  0.9601 (reduced coord)
 -10.18888   -0.00894    0.68479    0.81852    1.76508    3.92671    3.96055    4.13529
 kpt# 367, nband=  8, wtk=  1.00000, kpt=  0.9264  0.9632  0.9632 (reduced coord)
 -10.19461    0.06611    0.70764    0.82224    1.71279    3.92459    3.95426    4.10340
 kpt# 368, nband=  8, wtk=  1.00000, kpt=  0.9325  0.9663  0.9663 (reduced coord)
 -10.19988    0.14093    0.72885    0.82565    1.65892    3.92287    3.94848    4.07395
 kpt# 369, nband=  8, wtk=  1.00000, kpt=  0.9387  0.9693  0.9693 (reduced coord)
 -10.20469    0.21543    0.74836    0.82875    1.60352    3.92151    3.94320    4.04699
 kpt# 370, nband=  8, wtk=  1.00000, kpt=  0.9448  0.9724  0.9724 (reduced coord)
 -10.20905    0.28952    0.76614    0.83154    1.54668    3.92045    3.93842    4.02253
 kpt# 371, nband=  8, wtk=  1.00000, kpt=  0.9509  0.9755  0.9755 (reduced coord)
 -10.21296    0.36309    0.78216    0.83403    1.48851    3.91966    3.93415    4.00063
 kpt# 372, nband=  8, wtk=  1.00000, kpt=  0.9571  0.9785  0.9785 (reduced coord)
 -10.21640    0.43599    0.79637    0.83622    1.42917    3.91908    3.93038    3.98128
 kpt# 373, nband=  8, wtk=  1.00000, kpt=  0.9632  0.9816  0.9816 (reduced coord)
 -10.21939    0.50800    0.80875    0.83812    1.36889    3.91868    3.92712    3.96451
 kpt# 374, nband=  8, wtk=  1.00000, kpt=  0.9693  0.9847  0.9847 (reduced coord)
 -10.22192    0.57878    0.81927    0.83972    1.30800    3.91842    3.92435    3.95032
 kpt# 375, nband=  8, wtk=  1.00000, kpt=  0.9755  0.9877  0.9877 (reduced coord)
 -10.22399    0.64777    0.82791    0.84102    1.24708    3.91825    3.92209    3.93871
 kpt# 376, nband=  8, wtk=  1.00000, kpt=  0.9816  0.9908  0.9908 (reduced coord)
 -10.22560    0.71384    0.83465    0.84204    1.18728    3.91815    3.92033    3.92968
 kpt# 377, nband=  8, wtk=  1.00000, kpt=  0.9877  0.9939  0.9939 (reduced coord)
 -10.22675    0.77442    0.83948    0.84276    1.13117    3.91810    3.91908    3.92323
 kpt# 378, nband=  8, wtk=  1.00000, kpt=  0.9939  0.9969  0.9969 (reduced coord)
 -10.22744    0.82283    0.84237    0.84320    1.08544    3.91808    3.91832    3.91936
 kpt# 379, nband=  8, wtk=  1.00000, kpt=  1.0000  1.0000  1.0000 (reduced coord)
 -10.22767    0.84334    0.84334    0.84334    1.06582    3.91807    3.91807    3.91807
 Total charge density [el/Bohr^3]
      Maximum=    6.7703E-02  at reduced coord.    0.1750    0.1750    0.5000
 Next maximum=    6.7703E-02  at reduced coord.    0.1500    0.1750    0.5000
      Minimum=    1.3043E-06  at reduced coord.    0.2500    0.2500    0.2500
 Next minimum=    1.1527E-05  at reduced coord.    0.0000    0.0000    0.0000
   Integrated=    8.0000E+00

== END DATASET(S) ==============================================================

 -outvars: echo values of variables after computation  --------

 These variables are accessible in NetCDF format (BS_3o_OUT.nc)

            acell      1.1993726641E+01  1.1993726641E+01  1.1993726641E+01 Bohr
              amu      1.14820000E+02  1.21753000E+02
             ecut      2.50000000E+01 Hartree
           enunit1          0
           enunit2          1
           etotal1    -7.6836612690E+00
            fcart1    -0.0000000000E+00 -0.0000000000E+00 -0.0000000000E+00
                      -0.0000000000E+00 -0.0000000000E+00 -0.0000000000E+00
-          fftalg         312
           getden1          0
           getden2         -1
             iscf1          7
             iscf2         -2
           istwfk2       3    0    0    0    0    0    0    0    0    0
                         0    0    0    0    0    0    0    0    0    0
                         0    0    0    0    0    0    0    0    0    0
                         0    0    0    0    0    0    0    0    0    0
                         0    0    0    0    0    0    0    0    0    0
                       outvar_i_n : Printing only first  50 k-points.
           jdtset        1    2
              kpt1    -6.25000000E-02 -1.25000000E-01  0.00000000E+00
                      -6.25000000E-02 -2.50000000E-01  0.00000000E+00
                      -1.25000000E-01 -1.87500000E-01  0.00000000E+00
                      -6.25000000E-02 -1.87500000E-01  6.25000000E-02
                      -6.25000000E-02 -3.75000000E-01  0.00000000E+00
                      -1.25000000E-01 -3.12500000E-01  0.00000000E+00
                      -6.25000000E-02 -3.12500000E-01  6.25000000E-02
                      -1.87500000E-01 -2.50000000E-01  0.00000000E+00
                      -1.25000000E-01 -2.50000000E-01  6.25000000E-02
                      -6.25000000E-02 -2.50000000E-01  1.25000000E-01
                      -6.25000000E-02  5.00000000E-01  0.00000000E+00
                      -1.25000000E-01 -4.37500000E-01  0.00000000E+00
                      -6.25000000E-02 -4.37500000E-01  6.25000000E-02
                      -1.87500000E-01 -3.75000000E-01  0.00000000E+00
                      -1.25000000E-01 -3.75000000E-01  6.25000000E-02
                      -6.25000000E-02 -3.75000000E-01  1.25000000E-01
                      -2.50000000E-01 -3.12500000E-01  0.00000000E+00
                      -1.87500000E-01 -3.12500000E-01  6.25000000E-02
                      -1.25000000E-01 -3.12500000E-01  1.25000000E-01
                      -6.25000000E-02 -3.12500000E-01  1.87500000E-01
                      -6.25000000E-02  3.75000000E-01  0.00000000E+00
                      -1.25000000E-01  4.37500000E-01  0.00000000E+00
                      -1.87500000E-01  5.00000000E-01  0.00000000E+00
                      -1.25000000E-01  5.00000000E-01  6.25000000E-02
                      -2.50000000E-01 -4.37500000E-01  0.00000000E+00
                      -1.87500000E-01 -4.37500000E-01  6.25000000E-02
                      -1.25000000E-01 -4.37500000E-01  1.25000000E-01
                      -6.25000000E-02 -4.37500000E-01  1.87500000E-01
                      -3.12500000E-01 -3.75000000E-01  0.00000000E+00
                      -2.50000000E-01 -3.75000000E-01  6.25000000E-02
                      -1.87500000E-01 -3.75000000E-01  1.25000000E-01
                      -1.25000000E-01 -3.75000000E-01  1.87500000E-01
                      -6.25000000E-02 -3.75000000E-01  2.50000000E-01
                      -6.25000000E-02  2.50000000E-01  0.00000000E+00
                      -1.25000000E-01  3.12500000E-01  0.00000000E+00
                      -1.87500000E-01  3.75000000E-01  0.00000000E+00
                      -2.50000000E-01  4.37500000E-01  0.00000000E+00
                      -3.12500000E-01  5.00000000E-01  0.00000000E+00
                      -2.50000000E-01  5.00000000E-01  6.25000000E-02
                      -1.87500000E-01  5.00000000E-01  1.25000000E-01
                      -3.75000000E-01 -4.37500000E-01  0.00000000E+00
                      -3.12500000E-01 -4.37500000E-01  6.25000000E-02
                      -2.50000000E-01 -4.37500000E-01  1.25000000E-01
                      -1.87500000E-01 -4.37500000E-01  1.87500000E-01
                      -1.25000000E-01 -4.37500000E-01  2.50000000E-01
                      -6.25000000E-02 -4.37500000E-01  3.12500000E-01
                      -6.25000000E-02  1.25000000E-01  0.00000000E+00
                      -1.25000000E-01  1.87500000E-01  0.00000000E+00
                      -1.87500000E-01  2.50000000E-01  0.00000000E+00
                      -2.50000000E-01  3.12500000E-01  0.00000000E+00
              kpt2     5.00000000E-01  0.00000000E+00  0.00000000E+00
                       4.95000000E-01  0.00000000E+00  0.00000000E+00
                       4.90000000E-01  0.00000000E+00  0.00000000E+00
                       4.85000000E-01  0.00000000E+00  0.00000000E+00
                       4.80000000E-01  0.00000000E+00  0.00000000E+00
                       4.75000000E-01  0.00000000E+00  0.00000000E+00
                       4.70000000E-01  0.00000000E+00  0.00000000E+00
                       4.65000000E-01  0.00000000E+00  0.00000000E+00
                       4.60000000E-01  0.00000000E+00  0.00000000E+00
                       4.55000000E-01  0.00000000E+00  0.00000000E+00
                       4.50000000E-01  0.00000000E+00  0.00000000E+00
                       4.45000000E-01  0.00000000E+00  0.00000000E+00
                       4.40000000E-01  0.00000000E+00  0.00000000E+00
                       4.35000000E-01  0.00000000E+00  0.00000000E+00
                       4.30000000E-01  0.00000000E+00  0.00000000E+00
                       4.25000000E-01  0.00000000E+00  0.00000000E+00
                       4.20000000E-01  0.00000000E+00  0.00000000E+00
                       4.15000000E-01  0.00000000E+00  0.00000000E+00
                       4.10000000E-01  0.00000000E+00  0.00000000E+00
                       4.05000000E-01  0.00000000E+00  0.00000000E+00
                       4.00000000E-01  0.00000000E+00  0.00000000E+00
                       3.95000000E-01  0.00000000E+00  0.00000000E+00
                       3.90000000E-01  0.00000000E+00  0.00000000E+00
                       3.85000000E-01  0.00000000E+00  0.00000000E+00
                       3.80000000E-01  0.00000000E+00  0.00000000E+00
                       3.75000000E-01  0.00000000E+00  0.00000000E+00
                       3.70000000E-01  0.00000000E+00  0.00000000E+00
                       3.65000000E-01  0.00000000E+00  0.00000000E+00
                       3.60000000E-01  0.00000000E+00  0.00000000E+00
                       3.55000000E-01  0.00000000E+00  0.00000000E+00
                       3.50000000E-01  0.00000000E+00  0.00000000E+00
                       3.45000000E-01  0.00000000E+00  0.00000000E+00
                       3.40000000E-01  0.00000000E+00  0.00000000E+00
                       3.35000000E-01  0.00000000E+00  0.00000000E+00
                       3.30000000E-01  0.00000000E+00  0.00000000E+00
                       3.25000000E-01  0.00000000E+00  0.00000000E+00
                       3.20000000E-01  0.00000000E+00  0.00000000E+00
                       3.15000000E-01  0.00000000E+00  0.00000000E+00
                       3.10000000E-01  0.00000000E+00  0.00000000E+00
                       3.05000000E-01  0.00000000E+00  0.00000000E+00
                       3.00000000E-01  0.00000000E+00  0.00000000E+00
                       2.95000000E-01  0.00000000E+00  0.00000000E+00
                       2.90000000E-01  0.00000000E+00  0.00000000E+00
                       2.85000000E-01  0.00000000E+00  0.00000000E+00
                       2.80000000E-01  0.00000000E+00  0.00000000E+00
                       2.75000000E-01  0.00000000E+00  0.00000000E+00
                       2.70000000E-01  0.00000000E+00  0.00000000E+00
                       2.65000000E-01  0.00000000E+00  0.00000000E+00
                       2.60000000E-01  0.00000000E+00  0.00000000E+00
                       2.55000000E-01  0.00000000E+00  0.00000000E+00
                       outvar_i_n : Printing only first  50 k-points.
           kptopt1          1
           kptopt2         -3
         kptrlatt        8   -8    8     -8    8    8     -8   -8    8
          kptrlen1     9.59498131E+01
          kptrlen2     3.00000000E+01
P           mkmem1          8
P           mkmem2         48
            natom           2
            nband1          5
            nband2          8
           nbdbuf1          0
           nbdbuf2          2
           ndtset           2
           ndivsm1          0
           ndivsm2        100
            ngfft          40      40      40
             nkpt1         60
             nkpt2        379
            nstep         100
             nsym          24
           ntypat           2
              occ      2.000000  2.000000  2.000000  2.000000  0.000000
            rprim      0.0000000000E+00  5.0000000000E-01  5.0000000000E-01
                       5.0000000000E-01  0.0000000000E+00  5.0000000000E-01
                       5.0000000000E-01  5.0000000000E-01  0.0000000000E+00
           shiftk      5.00000000E-01  5.00000000E-01  5.00000000E-01
          spgroup         216
           strten1     1.4052301563E-07  1.4052301563E-07  1.4052301563E-07
                       0.0000000000E+00  0.0000000000E+00  0.0000000000E+00
           symrel      1  0  0   0  1  0   0  0  1       0 -1  1   0 -1  0   1 -1  0
                      -1  0  0  -1  0  1  -1  1  0       0  1 -1   1  0 -1   0  0 -1
                      -1  0  0  -1  1  0  -1  0  1       0 -1  1   1 -1  0   0 -1  0
                       1  0  0   0  0  1   0  1  0       0  1 -1   0  0 -1   1  0 -1
                      -1  0  1  -1  1  0  -1  0  0       0 -1  0   1 -1  0   0 -1  1
                       1  0 -1   0  0 -1   0  1 -1       0  1  0   0  0  1   1  0  0
                       1  0 -1   0  1 -1   0  0 -1       0 -1  0   0 -1  1   1 -1  0
                      -1  0  1  -1  0  0  -1  1  0       0  1  0   1  0  0   0  0  1
                       0  0 -1   0  1 -1   1  0 -1       1 -1  0   0 -1  1   0 -1  0
                       0  0  1   1  0  0   0  1  0      -1  1  0  -1  0  0  -1  0  1
                       0  0  1   0  1  0   1  0  0       1 -1  0   0 -1  0   0 -1  1
                       0  0 -1   1  0 -1   0  1 -1      -1  1  0  -1  0  1  -1  0  0
           tolvrs1     1.00000000E-12
           tolvrs2     0.00000000E+00
           tolwfr1     0.00000000E+00
           tolwfr2     1.00000000E-16
            typat      1  2
              wtk1       0.01172    0.01172    0.01172    0.02344    0.01172    0.01172
                         0.02344    0.01172    0.02344    0.02344    0.01172    0.01172
                         0.02344    0.01172    0.02344    0.02344    0.01172    0.02344
                         0.02344    0.02344    0.01172    0.01172    0.01172    0.02344
                         0.01172    0.02344    0.02344    0.02344    0.01172    0.02344
                         0.02344    0.02344    0.02344    0.01172    0.01172    0.01172
                         0.01172    0.01172    0.02344    0.02344    0.01172    0.02344
                         0.02344    0.02344    0.02344    0.02344    0.01172    0.01172
                         0.01172    0.01172
              wtk2       1.00000    1.00000    1.00000    1.00000    1.00000    1.00000
                         1.00000    1.00000    1.00000    1.00000    1.00000    1.00000
                         1.00000    1.00000    1.00000    1.00000    1.00000    1.00000
                         1.00000    1.00000    1.00000    1.00000    1.00000    1.00000
                         1.00000    1.00000    1.00000    1.00000    1.00000    1.00000
                         1.00000    1.00000    1.00000    1.00000    1.00000    1.00000
                         1.00000    1.00000    1.00000    1.00000    1.00000    1.00000
                         1.00000    1.00000    1.00000    1.00000    1.00000    1.00000
                         1.00000    1.00000
                       outvars : Printing only first  50 k-points.
           xangst      0.0000000000E+00  0.0000000000E+00  0.0000000000E+00
                       1.5867016961E+00  1.5867016961E+00  1.5867016961E+00
            xcart      0.0000000000E+00  0.0000000000E+00  0.0000000000E+00
                       2.9984316602E+00  2.9984316603E+00  2.9984316602E+00
             xred      0.0000000000E+00  0.0000000000E+00  0.0000000000E+00
                       2.5000000000E-01  2.5000000000E-01  2.5000000000E-01
            znucl       49.00000   51.00000

 Suggested references for the acknowledgment of ABINIT usage.

 Calculation completed.
.Delivered   0 WARNINGs and   2 COMMENTs to log file.

--- !FinalSummary
program: abinit
version: 9.2.2
start_datetime: Mon Mar 08 15:23:20 2021
end_datetime: Mon Mar 08 15:24:56 2021
overall_cpu_time:         421.0
overall_wall_time:         764.9
exit_requested_by_user: no
timelimit: 0
pseudos:
    In  : cda4741fa05734ba14a93c94a82a7069
    Sb  : 6af91e0e6923aef7e2927af1d4848bdd
usepaw: 0
mpi_procs: 8
omp_threads: 8
num_warnings: 0
num_comments: 2
...